c inputfile
p edge 855 56729
e 1 2
e 1 3
e 1 4
e 1 5
e 1 37
e 1 80
e 1 92
e 1 93
e 1 94
e 1 96
e 1 97
e 1 99
e 1 100
e 1 108
e 1 186
e 1 188
e 1 199
e 1 210
e 1 227
e 1 234
e 1 246
e 1 263
e 1 280
e 1 294
e 1 304
e 1 329
e 1 366
e 1 387
e 1 417
e 1 441
e 2 3
e 2 4
e 2 5
e 2 37
e 2 80
e 2 92
e 2 93
e 2 94
e 2 96
e 2 97
e 2 99
e 2 100
e 2 108
e 2 186
e 2 188
e 2 199
e 2 210
e 2 227
e 2 234
e 2 246
e 2 263
e 2 280
e 2 294
e 2 304
e 2 329
e 2 366
e 2 387
e 2 417
e 2 441
e 3 4
e 3 5
e 3 37
e 3 80
e 3 92
e 3 93
e 3 94
e 3 96
e 3 97
e 3 99
e 3 100
e 3 108
e 3 186
e 3 188
e 3 199
e 3 210
e 3 227
e 3 234
e 3 246
e 3 263
e 3 280
e 3 294
e 3 304
e 3 329
e 3 366
e 3 387
e 3 417
e 3 441
e 4 5
e 4 6
e 4 7
e 4 8
e 4 9
e 4 10
e 4 11
e 4 12
e 4 13
e 4 14
e 4 15
e 4 16
e 4 17
e 4 18
e 4 19
e 4 20
e 4 21
e 4 22
e 4 24
e 4 25
e 4 26
e 4 27
e 4 28
e 4 29
e 4 31
e 4 32
e 4 33
e 4 34
e 4 35
e 4 37
e 4 38
e 4 39
e 4 40
e 4 43
e 4 44
e 4 57
e 4 59
e 4 60
e 4 61
e 4 62
e 4 63
e 4 64
e 4 65
e 4 71
e 4 77
e 4 78
e 4 79
e 4 80
e 4 81
e 4 82
e 4 85
e 4 86
e 4 89
e 4 92
e 4 93
e 4 94
e 4 96
e 4 97
e 4 98
e 4 99
e 4 100
e 4 101
e 4 103
e 4 105
e 4 106
e 4 107
e 4 108
e 4 117
e 4 121
e 4 125
e 4 126
e 4 128
e 4 130
e 4 131
e 4 132
e 4 133
e 4 134
e 4 135
e 4 139
e 4 140
e 4 142
e 4 149
e 4 152
e 4 153
e 4 155
e 4 156
e 4 157
e 4 159
e 4 160
e 4 161
e 4 162
e 4 163
e 4 164
e 4 165
e 4 166
e 4 168
e 4 169
e 4 172
e 4 174
e 4 175
e 4 176
e 4 179
e 4 180
e 4 181
e 4 182
e 4 183
e 4 186
e 4 188
e 4 189
e 4 192
e 4 197
e 4 198
e 4 199
e 4 200
e 4 201
e 4 203
e 4 204
e 4 206
e 4 210
e 4 211
e 4 213
e 4 215
e 4 217
e 4 219
e 4 220
e 4 222
e 4 223
e 4 224
e 4 225
e 4 227
e 4 228
e 4 231
e 4 232
e 4 234
e 4 235
e 4 236
e 4 242
e 4 244
e 4 246
e 4 247
e 4 248
e 4 251
e 4 252
e 4 260
e 4 261
e 4 262
e 4 263
e 4 264
e 4 265
e 4 267
e 4 269
e 4 274
e 4 279
e 4 280
e 4 282
e 4 283
e 4 284
e 4 287
e 4 290
e 4 292
e 4 294
e 4 296
e 4 298
e 4 299
e 4 300
e 4 302
e 4 303
e 4 304
e 4 308
e 4 309
e 4 310
e 4 312
e 4 313
e 4 314
e 4 316
e 4 318
e 4 319
e 4 322
e 4 325
e 4 327
e 4 328
e 4 329
e 4 330
e 4 331
e 4 332
e 4 334
e 4 335
e 4 336
e 4 338
e 4 339
e 4 342
e 4 344
e 4 346
e 4 347
e 4 348
e 4 350
e 4 351
e 4 353
e 4 355
e 4 356
e 4 358
e 4 359
e 4 361
e 4 362
e 4 363
e 4 365
e 4 366
e 4 367
e 4 368
e 4 369
e 4 370
e 4 371
e 4 372
e 4 374
e 4 375
e 4 376
e 4 379
e 4 380
e 4 381
e 4 382
e 4 384
e 4 385
e 4 387
e 4 388
e 4 391
e 4 392
e 4 393
e 4 394
e 4 395
e 4 397
e 4 398
e 4 399
e 4 400
e 4 401
e 4 403
e 4 408
e 4 417
e 4 418
e 4 419
e 4 422
e 4 425
e 4 428
e 4 429
e 4 431
e 4 432
e 4 433
e 4 435
e 4 438
e 4 440
e 4 441
e 4 447
e 4 448
e 4 452
e 4 454
e 4 456
e 4 458
e 4 459
e 4 460
e 4 461
e 4 464
e 4 466
e 4 468
e 4 472
e 4 478
e 4 480
e 5 10
e 5 15
e 5 18
e 5 22
e 5 25
e 5 27
e 5 28
e 5 29
e 5 31
e 5 33
e 5 34
e 5 37
e 5 38
e 5 39
e 5 40
e 5 44
e 5 55
e 5 59
e 5 62
e 5 63
e 5 69
e 5 70
e 5 71
e 5 77
e 5 79
e 5 80
e 5 81
e 5 89
e 5 92
e 5 93
e 5 94
e 5 96
e 5 97
e 5 99
e 5 100
e 5 101
e 5 103
e 5 107
e 5 108
e 5 116
e 5 117
e 5 118
e 5 125
e 5 130
e 5 131
e 5 132
e 5 139
e 5 140
e 5 142
e 5 147
e 5 154
e 5 155
e 5 157
e 5 158
e 5 160
e 5 161
e 5 162
e 5 164
e 5 166
e 5 174
e 5 176
e 5 177
e 5 181
e 5 182
e 5 184
e 5 186
e 5 188
e 5 192
e 5 198
e 5 199
e 5 201
e 5 203
e 5 204
e 5 208
e 5 210
e 5 211
e 5 213
e 5 217
e 5 220
e 5 222
e 5 224
e 5 225
e 5 227
e 5 228
e 5 230
e 5 232
e 5 234
e 5 235
e 5 236
e 5 245
e 5 246
e 5 248
e 5 251
e 5 257
e 5 259
e 5 260
e 5 261
e 5 262
e 5 263
e 5 264
e 5 267
e 5 271
e 5 272
e 5 274
e 5 276
e 5 277
e 5 279
e 5 280
e 5 287
e 5 288
e 5 291
e 5 292
e 5 293
e 5 294
e 5 296
e 5 298
e 5 302
e 5 304
e 5 307
e 5 308
e 5 309
e 5 312
e 5 313
e 5 314
e 5 319
e 5 322
e 5 323
e 5 325
e 5 326
e 5 327
e 5 328
e 5 329
e 5 330
e 5 332
e 5 334
e 5 335
e 5 338
e 5 342
e 5 344
e 5 346
e 5 347
e 5 348
e 5 349
e 5 354
e 5 356
e 5 358
e 5 361
e 5 366
e 5 367
e 5 368
e 5 369
e 5 370
e 5 372
e 5 376
e 5 380
e 5 387
e 5 388
e 5 389
e 5 390
e 5 396
e 5 397
e 5 401
e 5 414
e 5 415
e 5 416
e 5 417
e 5 419
e 5 420
e 5 421
e 5 428
e 5 430
e 5 433
e 5 434
e 5 435
e 5 437
e 5 438
e 5 441
e 5 443
e 5 447
e 5 448
e 5 449
e 5 452
e 5 454
e 5 455
e 5 456
e 5 458
e 5 459
e 5 461
e 5 462
e 5 464
e 5 465
e 5 468
e 5 472
e 5 473
e 5 478
e 5 480
e 6 7
e 6 18
e 6 79
e 6 81
e 6 92
e 6 98
e 6 101
e 6 107
e 6 117
e 6 153
e 6 161
e 6 166
e 6 181
e 6 189
e 6 203
e 6 213
e 6 225
e 6 236
e 6 242
e 6 251
e 6 265
e 6 269
e 6 287
e 6 290
e 6 300
e 6 319
e 6 330
e 6 339
e 6 347
e 6 356
e 6 417
e 6 432
e 6 461
e 7 8
e 7 9
e 7 10
e 7 11
e 7 12
e 7 13
e 7 14
e 7 15
e 7 16
e 7 18
e 7 20
e 7 21
e 7 22
e 7 24
e 7 25
e 7 26
e 7 27
e 7 28
e 7 29
e 7 31
e 7 32
e 7 33
e 7 35
e 7 37
e 7 39
e 7 40
e 7 43
e 7 46
e 7 50
e 7 53
e 7 55
e 7 58
e 7 59
e 7 60
e 7 61
e 7 62
e 7 63
e 7 64
e 7 66
e 7 68
e 7 69
e 7 71
e 7 72
e 7 73
e 7 74
e 7 75
e 7 76
e 7 77
e 7 78
e 7 79
e 7 80
e 7 81
e 7 83
e 7 86
e 7 87
e 7 92
e 7 98
e 7 101
e 7 102
e 7 103
e 7 107
e 7 108
e 7 109
e 7 115
e 7 117
e 7 121
e 7 125
e 7 126
e 7 128
e 7 130
e 7 131
e 7 132
e 7 133
e 7 135
e 7 139
e 7 140
e 7 143
e 7 152
e 7 153
e 7 156
e 7 157
e 7 161
e 7 162
e 7 165
e 7 166
e 7 173
e 7 174
e 7 176
e 7 177
e 7 178
e 7 181
e 7 182
e 7 185
e 7 189
e 7 190
e 7 191
e 7 192
e 7 195
e 7 197
e 7 198
e 7 199
e 7 202
e 7 203
e 7 204
e 7 206
e 7 210
e 7 211
e 7 212
e 7 213
e 7 215
e 7 217
e 7 218
e 7 220
e 7 223
e 7 225
e 7 227
e 7 230
e 7 231
e 7 235
e 7 236
e 7 238
e 7 239
e 7 240
e 7 241
e 7 242
e 7 244
e 7 245
e 7 246
e 7 247
e 7 249
e 7 250
e 7 251
e 7 257
e 7 260
e 7 261
e 7 262
e 7 264
e 7 265
e 7 267
e 7 269
e 7 272
e 7 273
e 7 278
e 7 284
e 7 286
e 7 287
e 7 290
e 7 292
e 7 293
e 7 296
e 7 298
e 7 299
e 7 300
e 7 304
e 7 305
e 7 306
e 7 307
e 7 308
e 7 309
e 7 310
e 7 313
e 7 316
e 7 317
e 7 318
e 7 319
e 7 322
e 7 329
e 7 330
e 7 332
e 7 334
e 7 339
e 7 340
e 7 342
e 7 347
e 7 349
e 7 354
e 7 356
e 7 358
e 7 359
e 7 361
e 7 364
e 7 366
e 7 367
e 7 372
e 7 373
e 7 375
e 7 376
e 7 378
e 7 380
e 7 382
e 7 383
e 7 387
e 7 391
e 7 392
e 7 393
e 7 394
e 7 395
e 7 398
e 7 400
e 7 406
e 7 407
e 7 415
e 7 417
e 7 419
e 7 420
e 7 424
e 7 425
e 7 429
e 7 432
e 7 433
e 7 439
e 7 440
e 7 443
e 7 444
e 7 449
e 7 451
e 7 453
e 7 456
e 7 457
e 7 461
e 7 462
e 7 468
e 7 470
e 7 473
e 7 478
e 7 483
e 7 484
e 7 486
e 7 488
e 7 489
e 7 490
e 7 491
e 7 492
e 7 493
e 7 494
e 7 497
e 7 498
e 7 499
e 7 501
e 7 502
e 7 503
e 7 504
e 7 505
e 7 507
e 7 508
e 7 509
e 7 511
e 7 513
e 7 515
e 7 516
e 7 522
e 7 526
e 7 529
e 7 531
e 7 534
e 7 535
e 7 536
e 7 537
e 7 538
e 7 539
e 7 540
e 7 543
e 7 544
e 7 545
e 7 546
e 7 547
e 7 548
e 7 549
e 7 550
e 7 551
e 7 552
e 7 555
e 7 556
e 7 563
e 7 565
e 7 569
e 7 570
e 7 576
e 7 578
e 7 586
e 7 588
e 7 589
e 7 591
e 7 595
e 7 596
e 7 606
e 7 609
e 7 613
e 7 616
e 7 622
e 7 624
e 7 627
e 7 628
e 7 629
e 7 630
e 7 633
e 7 634
e 7 635
e 7 638
e 7 640
e 7 641
e 7 642
e 7 647
e 7 654
e 7 655
e 7 663
e 7 664
e 7 667
e 7 668
e 7 669
e 7 670
e 7 671
e 7 672
e 7 674
e 7 675
e 7 676
e 7 678
e 7 679
e 7 687
e 7 688
e 7 691
e 7 695
e 7 696
e 7 700
e 7 704
e 7 707
e 7 709
e 7 712
e 7 716
e 7 717
e 7 721
e 7 722
e 7 724
e 7 725
e 7 731
e 7 735
e 7 741
e 7 742
e 7 744
e 7 748
e 7 749
e 7 752
e 7 757
e 7 765
e 7 769
e 7 770
e 7 773
e 7 774
e 7 777
e 7 781
e 7 782
e 7 796
e 7 797
e 7 799
e 7 804
e 7 807
e 7 811
e 7 812
e 7 822
e 7 824
e 7 826
e 7 827
e 7 829
e 7 832
e 7 833
e 7 837
e 7 848
e 7 850
e 7 854
e 8 9
e 8 10
e 8 11
e 8 12
e 8 13
e 8 14
e 8 16
e 8 28
e 8 40
e 8 60
e 8 61
e 8 62
e 8 64
e 8 79
e 8 80
e 8 86
e 8 130
e 8 133
e 8 139
e 8 140
e 8 156
e 8 157
e 8 198
e 8 211
e 8 251
e 8 308
e 8 309
e 8 310
e 8 322
e 8 330
e 8 334
e 8 391
e 8 393
e 8 398
e 8 400
e 8 419
e 8 425
e 9 10
e 9 11
e 9 12
e 9 13
e 9 14
e 9 15
e 9 16
e 9 18
e 9 19
e 9 24
e 9 25
e 9 27
e 9 28
e 9 29
e 9 40
e 9 43
e 9 53
e 9 55
e 9 59
e 9 60
e 9 61
e 9 62
e 9 63
e 9 64
e 9 71
e 9 77
e 9 78
e 9 79
e 9 80
e 9 81
e 9 86
e 9 89
e 9 94
e 9 97
e 9 101
e 9 103
e 9 107
e 9 108
e 9 115
e 9 117
e 9 121
e 9 125
e 9 126
e 9 128
e 9 130
e 9 133
e 9 139
e 9 140
e 9 143
e 9 153
e 9 154
e 9 156
e 9 157
e 9 159
e 9 160
e 9 161
e 9 162
e 9 163
e 9 164
e 9 165
e 9 166
e 9 167
e 9 168
e 9 169
e 9 170
e 9 172
e 9 173
e 9 174
e 9 175
e 9 176
e 9 177
e 9 180
e 9 181
e 9 198
e 9 199
e 9 201
e 9 202
e 9 206
e 9 207
e 9 211
e 9 213
e 9 220
e 9 222
e 9 225
e 9 229
e 9 230
e 9 244
e 9 245
e 9 246
e 9 248
e 9 251
e 9 252
e 9 257
e 9 260
e 9 261
e 9 262
e 9 263
e 9 264
e 9 267
e 9 270
e 9 272
e 9 274
e 9 278
e 9 280
e 9 283
e 9 284
e 9 287
e 9 288
e 9 290
e 9 292
e 9 293
e 9 296
e 9 300
e 9 302
e 9 307
e 9 308
e 9 309
e 9 310
e 9 312
e 9 314
e 9 316
e 9 317
e 9 318
e 9 319
e 9 322
e 9 323
e 9 324
e 9 325
e 9 328
e 9 329
e 9 330
e 9 332
e 9 334
e 9 336
e 9 342
e 9 346
e 9 349
e 9 350
e 9 351
e 9 353
e 9 354
e 9 356
e 9 358
e 9 359
e 9 360
e 9 361
e 9 362
e 9 364
e 9 365
e 9 366
e 9 367
e 9 368
e 9 371
e 9 372
e 9 376
e 9 377
e 9 381
e 9 382
e 9 384
e 9 385
e 9 387
e 9 388
e 9 389
e 9 391
e 9 392
e 9 393
e 9 395
e 9 396
e 9 397
e 9 398
e 9 400
e 9 403
e 9 408
e 9 416
e 9 417
e 9 419
e 9 420
e 9 425
e 9 428
e 9 429
e 9 431
e 9 432
e 9 434
e 9 441
e 9 448
e 9 451
e 9 453
e 9 455
e 9 456
e 9 457
e 9 459
e 9 460
e 9 461
e 9 462
e 9 464
e 9 465
e 9 468
e 9 470
e 9 478
e 9 483
e 9 484
e 9 488
e 9 489
e 9 490
e 9 491
e 9 492
e 9 493
e 9 494
e 9 496
e 9 504
e 9 505
e 9 508
e 9 516
e 9 522
e 9 529
e 9 531
e 9 536
e 9 537
e 9 538
e 9 539
e 9 543
e 9 548
e 9 549
e 9 550
e 9 551
e 9 552
e 9 555
e 9 569
e 9 570
e 9 576
e 9 578
e 9 586
e 9 588
e 9 595
e 9 596
e 9 607
e 9 609
e 9 610
e 9 613
e 9 615
e 9 616
e 9 617
e 9 619
e 9 622
e 9 623
e 9 624
e 9 626
e 9 627
e 9 641
e 9 642
e 9 649
e 9 657
e 9 675
e 9 679
e 9 688
e 9 692
e 9 695
e 9 706
e 9 707
e 9 717
e 9 724
e 9 725
e 9 731
e 9 735
e 9 736
e 9 738
e 9 741
e 9 742
e 9 744
e 9 745
e 9 757
e 9 760
e 9 763
e 9 769
e 9 776
e 9 777
e 9 778
e 9 781
e 9 782
e 9 787
e 9 799
e 9 800
e 9 804
e 9 807
e 9 809
e 9 811
e 9 813
e 9 817
e 9 824
e 9 826
e 9 827
e 9 828
e 9 829
e 9 830
e 9 832
e 9 833
e 9 835
e 9 836
e 9 839
e 9 848
e 9 850
e 9 854
e 10 11
e 10 12
e 10 13
e 10 14
e 10 16
e 10 18
e 10 27
e 10 28
e 10 29
e 10 34
e 10 39
e 10 40
e 10 55
e 10 59
e 10 60
e 10 61
e 10 62
e 10 63
e 10 64
e 10 69
e 10 71
e 10 77
e 10 79
e 10 80
e 10 86
e 10 89
e 10 94
e 10 101
e 10 107
e 10 108
e 10 117
e 10 121
e 10 130
e 10 132
e 10 133
e 10 139
e 10 140
e 10 154
e 10 156
e 10 157
e 10 162
e 10 164
e 10 171
e 10 174
e 10 176
e 10 181
e 10 184
e 10 192
e 10 198
e 10 199
e 10 201
e 10 203
e 10 204
e 10 206
e 10 211
e 10 213
e 10 220
e 10 221
e 10 222
e 10 224
e 10 225
e 10 227
e 10 244
e 10 245
e 10 246
e 10 248
e 10 251
e 10 252
e 10 257
e 10 260
e 10 262
e 10 265
e 10 272
e 10 280
e 10 284
e 10 287
e 10 290
e 10 292
e 10 293
e 10 296
e 10 300
e 10 307
e 10 308
e 10 309
e 10 310
e 10 319
e 10 322
e 10 327
e 10 328
e 10 329
e 10 330
e 10 331
e 10 334
e 10 335
e 10 338
e 10 342
e 10 346
e 10 347
e 10 350
e 10 354
e 10 356
e 10 358
e 10 359
e 10 360
e 10 365
e 10 368
e 10 380
e 10 381
e 10 385
e 10 387
e 10 389
e 10 391
e 10 393
e 10 394
e 10 395
e 10 396
e 10 398
e 10 400
e 10 401
e 10 403
e 10 415
e 10 416
e 10 417
e 10 419
e 10 420
e 10 422
e 10 425
e 10 428
e 10 443
e 10 445
e 10 446
e 10 449
e 10 453
e 10 456
e 10 458
e 10 461
e 10 464
e 10 465
e 10 473
e 10 475
e 10 478
e 10 480
e 10 854
e 11 12
e 11 13
e 11 14
e 11 16
e 11 28
e 11 40
e 11 60
e 11 61
e 11 62
e 11 64
e 11 79
e 11 80
e 11 86
e 11 130
e 11 133
e 11 139
e 11 140
e 11 156
e 11 157
e 11 198
e 11 211
e 11 251
e 11 308
e 11 309
e 11 310
e 11 322
e 11 330
e 11 334
e 11 391
e 11 393
e 11 398
e 11 400
e 11 419
e 11 425
e 12 13
e 12 14
e 12 16
e 12 28
e 12 40
e 12 60
e 12 61
e 12 62
e 12 64
e 12 79
e 12 80
e 12 86
e 12 130
e 12 133
e 12 139
e 12 140
e 12 156
e 12 157
e 12 198
e 12 211
e 12 251
e 12 308
e 12 309
e 12 310
e 12 322
e 12 330
e 12 334
e 12 391
e 12 393
e 12 398
e 12 400
e 12 419
e 12 425
e 13 14
e 13 16
e 13 28
e 13 40
e 13 60
e 13 61
e 13 62
e 13 64
e 13 79
e 13 80
e 13 86
e 13 130
e 13 133
e 13 139
e 13 140
e 13 156
e 13 157
e 13 198
e 13 211
e 13 251
e 13 308
e 13 309
e 13 310
e 13 322
e 13 330
e 13 334
e 13 391
e 13 393
e 13 398
e 13 400
e 13 419
e 13 425
e 14 16
e 14 28
e 14 40
e 14 60
e 14 61
e 14 62
e 14 64
e 14 79
e 14 80
e 14 86
e 14 130
e 14 133
e 14 139
e 14 140
e 14 156
e 14 157
e 14 198
e 14 211
e 14 251
e 14 308
e 14 309
e 14 310
e 14 322
e 14 330
e 14 334
e 14 391
e 14 393
e 14 398
e 14 400
e 14 419
e 14 425
e 15 17
e 15 18
e 15 20
e 15 22
e 15 24
e 15 25
e 15 26
e 15 27
e 15 28
e 15 29
e 15 32
e 15 33
e 15 34
e 15 37
e 15 38
e 15 39
e 15 40
e 15 44
e 15 46
e 15 50
e 15 53
e 15 54
e 15 55
e 15 56
e 15 59
e 15 62
e 15 63
e 15 65
e 15 71
e 15 77
e 15 78
e 15 79
e 15 80
e 15 81
e 15 85
e 15 89
e 15 92
e 15 95
e 15 97
e 15 101
e 15 107
e 15 108
e 15 109
e 15 111
e 15 115
e 15 117
e 15 120
e 15 125
e 15 130
e 15 131
e 15 132
e 15 139
e 15 143
e 15 144
e 15 153
e 15 154
e 15 157
e 15 161
e 15 164
e 15 166
e 15 173
e 15 174
e 15 176
e 15 181
e 15 182
e 15 191
e 15 192
e 15 199
e 15 201
e 15 204
e 15 206
e 15 208
e 15 209
e 15 210
e 15 211
e 15 213
e 15 215
e 15 217
e 15 222
e 15 223
e 15 225
e 15 227
e 15 228
e 15 229
e 15 235
e 15 236
e 15 237
e 15 241
e 15 244
e 15 245
e 15 246
e 15 247
e 15 248
e 15 249
e 15 250
e 15 251
e 15 260
e 15 263
e 15 264
e 15 271
e 15 272
e 15 274
e 15 276
e 15 277
e 15 282
e 15 283
e 15 284
e 15 286
e 15 287
e 15 289
e 15 290
e 15 295
e 15 296
e 15 300
e 15 307
e 15 311
e 15 316
e 15 317
e 15 318
e 15 319
e 15 326
e 15 329
e 15 330
e 15 332
e 15 334
e 15 335
e 15 336
e 15 338
e 15 339
e 15 342
e 15 344
e 15 345
e 15 346
e 15 347
e 15 348
e 15 349
e 15 351
e 15 354
e 15 356
e 15 359
e 15 365
e 15 366
e 15 367
e 15 369
e 15 370
e 15 372
e 15 374
e 15 377
e 15 379
e 15 380
e 15 382
e 15 384
e 15 385
e 15 386
e 15 387
e 15 389
e 15 390
e 15 391
e 15 392
e 15 394
e 15 395
e 15 400
e 15 407
e 15 409
e 15 410
e 15 411
e 15 417
e 15 418
e 15 420
e 15 422
e 15 423
e 15 424
e 15 428
e 15 429
e 15 430
e 15 432
e 15 436
e 15 437
e 15 438
e 15 442
e 15 443
e 15 445
e 15 446
e 15 447
e 15 450
e 15 452
e 15 453
e 15 455
e 15 456
e 15 457
e 15 460
e 15 461
e 15 462
e 15 463
e 15 466
e 15 469
e 15 470
e 15 471
e 15 474
e 15 477
e 15 478
e 15 480
e 16 22
e 16 25
e 16 27
e 16 28
e 16 29
e 16 40
e 16 44
e 16 48
e 16 50
e 16 51
e 16 52
e 16 55
e 16 59
e 16 60
e 16 61
e 16 62
e 16 64
e 16 79
e 16 80
e 16 86
e 16 101
e 16 103
e 16 126
e 16 128
e 16 129
e 16 130
e 16 133
e 16 139
e 16 140
e 16 148
e 16 154
e 16 156
e 16 157
e 16 162
e 16 164
e 16 165
e 16 166
e 16 167
e 16 170
e 16 173
e 16 176
e 16 180
e 16 192
e 16 194
e 16 198
e 16 199
e 16 204
e 16 211
e 16 220
e 16 221
e 16 222
e 16 229
e 16 233
e 16 235
e 16 243
e 16 245
e 16 246
e 16 251
e 16 262
e 16 263
e 16 270
e 16 280
e 16 281
e 16 282
e 16 284
e 16 287
e 16 290
e 16 293
e 16 299
e 16 308
e 16 309
e 16 310
e 16 312
e 16 314
e 16 315
e 16 322
e 16 323
e 16 324
e 16 326
e 16 330
e 16 333
e 16 334
e 16 336
e 16 341
e 16 342
e 16 346
e 16 353
e 16 354
e 16 360
e 16 361
e 16 364
e 16 372
e 16 388
e 16 391
e 16 393
e 16 398
e 16 400
e 16 408
e 16 414
e 16 419
e 16 425
e 16 429
e 16 431
e 16 441
e 16 453
e 16 457
e 16 462
e 16 475
e 16 479
e 17 18
e 17 19
e 17 25
e 17 28
e 17 29
e 17 37
e 17 38
e 17 39
e 17 40
e 17 59
e 17 60
e 17 61
e 17 62
e 17 63
e 17 64
e 17 77
e 17 78
e 17 79
e 17 80
e 17 89
e 17 97
e 17 107
e 17 108
e 17 117
e 17 120
e 17 130
e 17 139
e 17 140
e 17 156
e 17 157
e 17 182
e 17 192
e 17 201
e 17 204
e 17 211
e 17 222
e 17 223
e 17 227
e 17 232
e 17 236
e 17 247
e 17 248
e 17 251
e 17 260
e 17 264
e 17 267
e 17 279
e 17 283
e 17 287
e 17 289
e 17 290
e 17 299
e 17 308
e 17 309
e 17 314
e 17 316
e 17 318
e 17 319
e 17 325
e 17 328
e 17 330
e 17 331
e 17 334
e 17 338
e 17 339
e 17 342
e 17 348
e 17 359
e 17 365
e 17 377
e 17 385
e 17 386
e 17 387
e 17 391
e 17 393
e 17 395
e 17 418
e 17 419
e 17 422
e 17 428
e 17 432
e 17 433
e 17 440
e 17 443
e 17 469
e 17 472
e 18 19
e 18 20
e 18 22
e 18 24
e 18 25
e 18 26
e 18 27
e 18 28
e 18 29
e 18 31
e 18 32
e 18 33
e 18 34
e 18 37
e 18 38
e 18 39
e 18 40
e 18 43
e 18 44
e 18 46
e 18 48
e 18 50
e 18 53
e 18 54
e 18 55
e 18 56
e 18 59
e 18 60
e 18 61
e 18 62
e 18 63
e 18 64
e 18 69
e 18 70
e 18 71
e 18 75
e 18 77
e 18 78
e 18 79
e 18 80
e 18 81
e 18 82
e 18 83
e 18 88
e 18 89
e 18 92
e 18 94
e 18 95
e 18 97
e 18 98
e 18 101
e 18 103
e 18 104
e 18 107
e 18 108
e 18 109
e 18 111
e 18 117
e 18 120
e 18 121
e 18 122
e 18 123
e 18 125
e 18 126
e 18 128
e 18 130
e 18 131
e 18 132
e 18 137
e 18 139
e 18 140
e 18 142
e 18 143
e 18 144
e 18 145
e 18 147
e 18 153
e 18 154
e 18 155
e 18 156
e 18 157
e 18 160
e 18 161
e 18 162
e 18 164
e 18 165
e 18 166
e 18 172
e 18 173
e 18 174
e 18 175
e 18 176
e 18 177
e 18 180
e 18 181
e 18 182
e 18 183
e 18 184
e 18 185
e 18 187
e 18 189
e 18 190
e 18 192
e 18 195
e 18 198
e 18 199
e 18 200
e 18 201
e 18 202
e 18 203
e 18 204
e 18 207
e 18 208
e 18 210
e 18 211
e 18 212
e 18 213
e 18 214
e 18 215
e 18 217
e 18 219
e 18 220
e 18 222
e 18 223
e 18 224
e 18 225
e 18 226
e 18 227
e 18 228
e 18 229
e 18 230
e 18 231
e 18 232
e 18 235
e 18 236
e 18 237
e 18 239
e 18 240
e 18 241
e 18 242
e 18 244
e 18 245
e 18 246
e 18 247
e 18 248
e 18 249
e 18 250
e 18 251
e 18 253
e 18 254
e 18 255
e 18 256
e 18 257
e 18 259
e 18 260
e 18 261
e 18 262
e 18 263
e 18 264
e 18 265
e 18 266
e 18 267
e 18 269
e 18 271
e 18 272
e 18 273
e 18 274
e 18 276
e 18 277
e 18 278
e 18 279
e 18 280
e 18 282
e 18 283
e 18 284
e 18 287
e 18 289
e 18 290
e 18 291
e 18 292
e 18 293
e 18 294
e 18 295
e 18 296
e 18 298
e 18 299
e 18 300
e 18 302
e 18 303
e 18 304
e 18 305
e 18 306
e 18 307
e 18 308
e 18 309
e 18 311
e 18 313
e 18 314
e 18 315
e 18 316
e 18 317
e 18 318
e 18 319
e 18 320
e 18 325
e 18 326
e 18 327
e 18 328
e 18 329
e 18 330
e 18 331
e 18 332
e 18 334
e 18 335
e 18 336
e 18 337
e 18 338
e 18 339
e 18 340
e 18 342
e 18 343
e 18 344
e 18 345
e 18 346
e 18 347
e 18 348
e 18 349
e 18 350
e 18 351
e 18 354
e 18 355
e 18 356
e 18 357
e 18 358
e 18 359
e 18 361
e 18 362
e 18 363
e 18 364
e 18 365
e 18 366
e 18 367
e 18 368
e 18 369
e 18 370
e 18 371
e 18 372
e 18 375
e 18 376
e 18 377
e 18 378
e 18 379
e 18 380
e 18 382
e 18 383
e 18 384
e 18 385
e 18 386
e 18 387
e 18 388
e 18 389
e 18 390
e 18 391
e 18 392
e 18 393
e 18 394
e 18 395
e 18 396
e 18 397
e 18 399
e 18 400
e 18 401
e 18 406
e 18 407
e 18 409
e 18 410
e 18 411
e 18 412
e 18 413
e 18 414
e 18 415
e 18 416
e 18 417
e 18 418
e 18 419
e 18 420
e 18 421
e 18 422
e 18 423
e 18 424
e 18 426
e 18 427
e 18 428
e 18 429
e 18 430
e 18 431
e 18 432
e 18 433
e 18 434
e 18 435
e 18 436
e 18 437
e 18 438
e 18 439
e 18 440
e 18 441
e 18 442
e 18 443
e 18 444
e 18 445
e 18 446
e 18 447
e 18 448
e 18 449
e 18 451
e 18 452
e 18 453
e 18 454
e 18 455
e 18 456
e 18 457
e 18 458
e 18 459
e 18 460
e 18 461
e 18 462
e 18 463
e 18 464
e 18 465
e 18 466
e 18 467
e 18 468
e 18 469
e 18 470
e 18 471
e 18 472
e 18 473
e 18 474
e 18 475
e 18 476
e 18 477
e 18 478
e 18 479
e 18 480
e 18 483
e 18 484
e 18 485
e 18 486
e 18 487
e 18 489
e 18 493
e 18 495
e 18 496
e 18 499
e 18 501
e 18 502
e 18 504
e 18 505
e 18 507
e 18 508
e 18 509
e 18 510
e 18 513
e 18 514
e 18 515
e 18 516
e 18 522
e 18 526
e 18 529
e 18 531
e 18 535
e 18 536
e 18 537
e 18 538
e 18 539
e 18 543
e 18 548
e 18 549
e 18 550
e 18 551
e 18 552
e 18 556
e 18 558
e 18 563
e 18 566
e 18 569
e 18 570
e 18 578
e 18 579
e 18 580
e 18 581
e 18 583
e 18 584
e 18 586
e 18 588
e 18 589
e 18 595
e 18 596
e 18 598
e 18 599
e 18 600
e 18 606
e 18 607
e 18 609
e 18 610
e 18 613
e 18 615
e 18 616
e 18 623
e 18 624
e 18 626
e 18 627
e 18 628
e 18 629
e 18 630
e 18 632
e 18 633
e 18 638
e 18 641
e 18 642
e 18 644
e 18 647
e 18 652
e 18 654
e 18 657
e 18 658
e 18 660
e 18 661
e 18 662
e 18 663
e 18 667
e 18 668
e 18 670
e 18 671
e 18 672
e 18 673
e 18 674
e 18 675
e 18 676
e 18 677
e 18 679
e 18 681
e 18 682
e 18 683
e 18 684
e 18 686
e 18 688
e 18 689
e 18 691
e 18 694
e 18 695
e 18 696
e 18 697
e 18 699
e 18 700
e 18 701
e 18 703
e 18 704
e 18 707
e 18 709
e 18 711
e 18 712
e 18 715
e 18 716
e 18 717
e 18 720
e 18 721
e 18 724
e 18 726
e 18 729
e 18 730
e 18 731
e 18 732
e 18 733
e 18 738
e 18 739
e 18 740
e 18 741
e 18 742
e 18 744
e 18 745
e 18 747
e 18 748
e 18 749
e 18 751
e 18 752
e 18 753
e 18 757
e 18 758
e 18 759
e 18 761
e 18 762
e 18 764
e 18 765
e 18 766
e 18 767
e 18 768
e 18 769
e 18 770
e 18 773
e 18 774
e 18 775
e 18 777
e 18 778
e 18 779
e 18 780
e 18 781
e 18 782
e 18 783
e 18 784
e 18 785
e 18 791
e 18 792
e 18 793
e 18 794
e 18 795
e 18 796
e 18 797
e 18 798
e 18 799
e 18 800
e 18 801
e 18 802
e 18 803
e 18 805
e 18 806
e 18 807
e 18 808
e 18 810
e 18 811
e 18 812
e 18 813
e 18 814
e 18 815
e 18 816
e 18 818
e 18 819
e 18 820
e 18 821
e 18 822
e 18 823
e 18 824
e 18 825
e 18 826
e 18 827
e 18 828
e 18 829
e 18 830
e 18 831
e 18 832
e 18 833
e 18 834
e 18 835
e 18 836
e 18 837
e 18 838
e 18 839
e 18 840
e 18 841
e 18 842
e 18 843
e 18 844
e 18 845
e 18 846
e 18 847
e 18 848
e 18 849
e 18 850
e 18 851
e 18 852
e 18 853
e 18 854
e 18 855
e 19 27
e 19 28
e 19 29
e 19 38
e 19 55
e 19 59
e 19 60
e 19 61
e 19 62
e 19 63
e 19 64
e 19 71
e 19 77
e 19 79
e 19 80
e 19 89
e 19 94
e 19 101
e 19 108
e 19 126
e 19 130
e 19 139
e 19 140
e 19 153
e 19 156
e 19 157
e 19 161
e 19 166
e 19 176
e 19 181
e 19 192
e 19 199
e 19 201
e 19 206
e 19 207
e 19 211
e 19 213
e 19 230
e 19 232
e 19 247
e 19 251
e 19 279
e 19 288
e 19 290
e 19 292
e 19 293
e 19 296
e 19 300
e 19 308
e 19 309
e 19 328
e 19 330
e 19 334
e 19 336
e 19 350
e 19 360
e 19 365
e 19 367
e 19 371
e 19 372
e 19 381
e 19 385
e 19 387
e 19 391
e 19 393
e 19 395
e 19 397
e 19 403
e 19 419
e 19 420
e 19 428
e 19 433
e 19 434
e 19 448
e 19 451
e 19 453
e 19 457
e 19 459
e 19 461
e 19 465
e 19 854
e 20 21
e 20 22
e 20 24
e 20 26
e 20 27
e 20 28
e 20 29
e 20 31
e 20 32
e 20 33
e 20 34
e 20 35
e 20 37
e 20 40
e 20 48
e 20 50
e 20 53
e 20 54
e 20 55
e 20 56
e 20 59
e 20 62
e 20 71
e 20 77
e 20 79
e 20 88
e 20 101
e 20 107
e 20 108
e 20 109
e 20 110
e 20 111
e 20 112
e 20 113
e 20 114
e 20 117
e 20 119
e 20 128
e 20 130
e 20 132
e 20 135
e 20 139
e 20 140
e 20 152
e 20 157
e 20 162
e 20 165
e 20 166
e 20 173
e 20 174
e 20 176
e 20 192
e 20 195
e 20 198
e 20 206
e 20 211
e 20 212
e 20 213
e 20 215
e 20 217
e 20 220
e 20 222
e 20 224
e 20 229
e 20 231
e 20 239
e 20 241
e 20 243
e 20 244
e 20 247
e 20 249
e 20 250
e 20 251
e 20 260
e 20 261
e 20 262
e 20 282
e 20 284
e 20 287
e 20 290
e 20 296
e 20 306
e 20 308
e 20 309
e 20 314
e 20 326
e 20 329
e 20 330
e 20 334
e 20 347
e 20 354
e 20 356
e 20 357
e 20 364
e 20 368
e 20 376
e 20 383
e 20 386
e 20 390
e 20 394
e 20 395
e 20 400
e 20 407
e 20 412
e 20 417
e 20 419
e 20 425
e 20 426
e 20 429
e 20 431
e 20 436
e 20 437
e 20 441
e 20 442
e 20 456
e 20 462
e 20 467
e 20 469
e 20 471
e 20 472
e 20 473
e 20 480
e 20 854
e 21 22
e 21 24
e 21 26
e 21 27
e 21 28
e 21 29
e 21 31
e 21 33
e 21 35
e 21 37
e 21 40
e 21 59
e 21 79
e 21 101
e 21 130
e 21 132
e 21 135
e 21 139
e 21 152
e 21 162
e 21 198
e 21 211
e 21 231
e 21 244
e 21 247
e 21 251
e 21 284
e 21 334
e 21 347
e 21 400
e 21 425
e 22 24
e 22 25
e 22 26
e 22 27
e 22 28
e 22 29
e 22 31
e 22 33
e 22 35
e 22 37
e 22 38
e 22 39
e 22 40
e 22 41
e 22 43
e 22 46
e 22 48
e 22 50
e 22 53
e 22 55
e 22 59
e 22 62
e 22 63
e 22 69
e 22 70
e 22 71
e 22 75
e 22 77
e 22 78
e 22 79
e 22 81
e 22 88
e 22 89
e 22 92
e 22 95
e 22 101
e 22 102
e 22 103
e 22 107
e 22 108
e 22 109
e 22 111
e 22 121
e 22 125
e 22 128
e 22 130
e 22 131
e 22 132
e 22 134
e 22 135
e 22 136
e 22 139
e 22 140
e 22 141
e 22 142
e 22 147
e 22 152
e 22 153
e 22 154
e 22 155
e 22 157
e 22 158
e 22 160
e 22 162
e 22 166
e 22 173
e 22 174
e 22 177
e 22 181
e 22 191
e 22 192
e 22 194
e 22 195
e 22 198
e 22 199
e 22 201
e 22 203
e 22 204
e 22 206
e 22 208
e 22 210
e 22 211
e 22 213
e 22 215
e 22 216
e 22 217
e 22 219
e 22 220
e 22 222
e 22 227
e 22 228
e 22 229
e 22 231
e 22 232
e 22 233
e 22 235
e 22 236
e 22 241
e 22 244
e 22 245
e 22 246
e 22 247
e 22 248
e 22 249
e 22 250
e 22 251
e 22 259
e 22 260
e 22 261
e 22 262
e 22 263
e 22 267
e 22 273
e 22 274
e 22 281
e 22 282
e 22 284
e 22 285
e 22 286
e 22 287
e 22 291
e 22 293
e 22 296
e 22 298
e 22 299
e 22 300
e 22 302
e 22 306
e 22 307
e 22 308
e 22 309
e 22 313
e 22 315
e 22 316
e 22 319
e 22 322
e 22 325
e 22 326
e 22 327
e 22 328
e 22 329
e 22 330
e 22 332
e 22 333
e 22 334
e 22 335
e 22 336
e 22 338
e 22 342
e 22 344
e 22 345
e 22 347
e 22 353
e 22 354
e 22 356
e 22 358
e 22 367
e 22 369
e 22 370
e 22 372
e 22 376
e 22 380
e 22 386
e 22 388
e 22 389
e 22 390
e 22 393
e 22 394
e 22 398
e 22 400
e 22 407
e 22 409
e 22 410
e 22 411
e 22 414
e 22 415
e 22 417
e 22 419
e 22 420
e 22 422
e 22 423
e 22 424
e 22 425
e 22 428
e 22 429
e 22 433
e 22 434
e 22 435
e 22 437
e 22 439
e 22 443
e 22 445
e 22 446
e 22 447
e 22 450
e 22 451
e 22 452
e 22 453
e 22 454
e 22 455
e 22 457
e 22 460
e 22 462
e 22 463
e 22 468
e 22 470
e 22 471
e 22 473
e 22 477
e 22 478
e 22 479
e 22 480
e 22 484
e 22 502
e 22 507
e 22 515
e 22 533
e 22 535
e 22 550
e 22 569
e 22 570
e 22 578
e 22 586
e 22 588
e 22 616
e 22 641
e 22 642
e 22 643
e 22 647
e 22 654
e 22 659
e 22 664
e 22 666
e 22 679
e 22 687
e 22 688
e 22 707
e 22 710
e 22 717
e 22 719
e 22 728
e 22 739
e 22 742
e 22 756
e 22 757
e 22 796
e 22 799
e 22 807
e 22 809
e 22 817
e 22 843
e 22 854
e 23 25
e 23 28
e 23 30
e 23 32
e 23 33
e 23 34
e 23 36
e 23 38
e 23 62
e 23 71
e 23 77
e 23 80
e 23 81
e 23 128
e 23 131
e 23 133
e 23 157
e 23 174
e 23 211
e 23 219
e 23 227
e 23 278
e 23 284
e 23 287
e 23 338
e 23 355
e 23 356
e 23 385
e 23 398
e 23 406
e 23 423
e 23 424
e 23 431
e 23 444
e 23 466
e 24 25
e 24 26
e 24 27
e 24 28
e 24 29
e 24 31
e 24 32
e 24 33
e 24 35
e 24 37
e 24 40
e 24 50
e 24 53
e 24 54
e 24 55
e 24 56
e 24 59
e 24 62
e 24 63
e 24 77
e 24 79
e 24 89
e 24 94
e 24 97
e 24 101
e 24 107
e 24 108
e 24 109
e 24 125
e 24 126
e 24 130
e 24 132
e 24 135
e 24 137
e 24 139
e 24 152
e 24 157
e 24 159
e 24 160
e 24 161
e 24 162
e 24 163
e 24 164
e 24 166
e 24 168
e 24 169
e 24 172
e 24 173
e 24 174
e 24 175
e 24 176
e 24 180
e 24 192
e 24 195
e 24 198
e 24 199
e 24 203
e 24 204
e 24 206
e 24 211
e 24 213
e 24 214
e 24 215
e 24 217
e 24 222
e 24 231
e 24 237
e 24 239
e 24 241
e 24 244
e 24 246
e 24 247
e 24 248
e 24 249
e 24 250
e 24 251
e 24 253
e 24 254
e 24 256
e 24 257
e 24 258
e 24 261
e 24 262
e 24 266
e 24 280
e 24 282
e 24 283
e 24 284
e 24 287
e 24 290
e 24 312
e 24 314
e 24 320
e 24 326
e 24 328
e 24 329
e 24 330
e 24 334
e 24 337
e 24 338
e 24 346
e 24 347
e 24 353
e 24 361
e 24 362
e 24 372
e 24 376
e 24 380
e 24 386
e 24 395
e 24 400
e 24 404
e 24 407
e 24 408
e 24 417
e 24 419
e 24 421
e 24 425
e 24 432
e 24 436
e 24 437
e 24 442
e 24 456
e 24 462
e 24 467
e 24 469
e 24 471
e 24 472
e 24 478
e 24 480
e 25 28
e 25 29
e 25 30
e 25 31
e 25 32
e 25 33
e 25 34
e 25 36
e 25 37
e 25 38
e 25 39
e 25 40
e 25 44
e 25 46
e 25 49
e 25 50
e 25 51
e 25 52
e 25 55
e 25 57
e 25 58
e 25 59
e 25 62
e 25 63
e 25 69
e 25 71
e 25 77
e 25 78
e 25 79
e 25 80
e 25 81
e 25 82
e 25 89
e 25 92
e 25 94
e 25 95
e 25 101
e 25 107
e 25 108
e 25 111
e 25 117
e 25 128
e 25 129
e 25 130
e 25 131
e 25 132
e 25 133
e 25 139
e 25 146
e 25 148
e 25 149
e 25 154
e 25 157
e 25 159
e 25 160
e 25 161
e 25 162
e 25 163
e 25 164
e 25 165
e 25 166
e 25 168
e 25 169
e 25 172
e 25 174
e 25 175
e 25 176
e 25 177
e 25 178
e 25 180
e 25 181
e 25 182
e 25 183
e 25 184
e 25 185
e 25 187
e 25 188
e 25 189
e 25 191
e 25 192
e 25 196
e 25 198
e 25 199
e 25 200
e 25 201
e 25 203
e 25 204
e 25 206
e 25 207
e 25 210
e 25 211
e 25 212
e 25 213
e 25 215
e 25 217
e 25 218
e 25 219
e 25 220
e 25 221
e 25 222
e 25 224
e 25 225
e 25 226
e 25 227
e 25 229
e 25 230
e 25 231
e 25 233
e 25 234
e 25 238
e 25 239
e 25 240
e 25 241
e 25 242
e 25 243
e 25 244
e 25 245
e 25 246
e 25 248
e 25 251
e 25 260
e 25 261
e 25 262
e 25 263
e 25 264
e 25 267
e 25 269
e 25 270
e 25 272
e 25 278
e 25 279
e 25 280
e 25 282
e 25 283
e 25 284
e 25 285
e 25 286
e 25 287
e 25 290
e 25 291
e 25 292
e 25 293
e 25 294
e 25 296
e 25 297
e 25 299
e 25 300
e 25 301
e 25 302
e 25 303
e 25 304
e 25 305
e 25 306
e 25 307
e 25 310
e 25 312
e 25 314
e 25 315
e 25 318
e 25 322
e 25 324
e 25 325
e 25 326
e 25 327
e 25 328
e 25 329
e 25 330
e 25 331
e 25 333
e 25 334
e 25 336
e 25 338
e 25 340
e 25 341
e 25 342
e 25 344
e 25 345
e 25 346
e 25 347
e 25 351
e 25 352
e 25 353
e 25 354
e 25 355
e 25 356
e 25 357
e 25 360
e 25 361
e 25 367
e 25 368
e 25 372
e 25 374
e 25 375
e 25 376
e 25 378
e 25 380
e 25 383
e 25 385
e 25 388
e 25 389
e 25 390
e 25 394
e 25 395
e 25 398
e 25 400
e 25 402
e 25 405
e 25 406
e 25 408
e 25 412
e 25 416
e 25 417
e 25 418
e 25 419
e 25 420
e 25 421
e 25 423
e 25 424
e 25 425
e 25 426
e 25 429
e 25 431
e 25 433
e 25 439
e 25 440
e 25 441
e 25 444
e 25 450
e 25 452
e 25 453
e 25 457
e 25 462
e 25 466
e 25 467
e 25 470
e 25 472
e 25 473
e 25 475
e 25 476
e 25 477
e 25 479
e 26 27
e 26 28
e 26 29
e 26 31
e 26 33
e 26 35
e 26 37
e 26 40
e 26 59
e 26 62
e 26 78
e 26 79
e 26 92
e 26 101
e 26 107
e 26 108
e 26 130
e 26 132
e 26 135
e 26 139
e 26 152
e 26 153
e 26 162
e 26 198
e 26 199
e 26 208
e 26 211
e 26 217
e 26 227
e 26 229
e 26 231
e 26 244
e 26 247
e 26 248
e 26 251
e 26 263
e 26 284
e 26 296
e 26 334
e 26 335
e 26 345
e 26 347
e 26 354
e 26 390
e 26 400
e 26 409
e 26 410
e 26 411
e 26 420
e 26 422
e 26 424
e 26 425
e 26 437
e 26 445
e 26 446
e 26 453
e 26 470
e 27 28
e 27 29
e 27 31
e 27 33
e 27 34
e 27 35
e 27 37
e 27 40
e 27 53
e 27 55
e 27 59
e 27 62
e 27 63
e 27 69
e 27 71
e 27 75
e 27 78
e 27 79
e 27 80
e 27 81
e 27 89
e 27 99
e 27 101
e 27 103
e 27 107
e 27 108
e 27 115
e 27 117
e 27 125
e 27 126
e 27 128
e 27 130
e 27 132
e 27 135
e 27 139
e 27 140
e 27 142
e 27 143
e 27 152
e 27 154
e 27 157
e 27 161
e 27 162
e 27 164
e 27 165
e 27 166
e 27 167
e 27 170
e 27 171
e 27 173
e 27 174
e 27 176
e 27 177
e 27 180
e 27 181
e 27 184
e 27 192
e 27 198
e 27 199
e 27 202
e 27 203
e 27 204
e 27 206
e 27 207
e 27 211
e 27 213
e 27 220
e 27 221
e 27 222
e 27 224
e 27 225
e 27 227
e 27 229
e 27 230
e 27 231
e 27 236
e 27 241
e 27 244
e 27 245
e 27 246
e 27 247
e 27 248
e 27 251
e 27 257
e 27 260
e 27 263
e 27 264
e 27 267
e 27 270
e 27 272
e 27 274
e 27 280
e 27 284
e 27 287
e 27 288
e 27 289
e 27 290
e 27 292
e 27 293
e 27 296
e 27 300
e 27 302
e 27 306
e 27 314
e 27 317
e 27 318
e 27 319
e 27 323
e 27 324
e 27 325
e 27 327
e 27 329
e 27 330
e 27 332
e 27 334
e 27 335
e 27 338
e 27 342
e 27 346
e 27 347
e 27 349
e 27 354
e 27 356
e 27 358
e 27 360
e 27 364
e 27 366
e 27 368
e 27 372
e 27 377
e 27 380
e 27 381
e 27 382
e 27 384
e 27 386
e 27 387
e 27 388
e 27 389
e 27 390
e 27 391
e 27 392
e 27 393
e 27 394
e 27 395
e 27 396
e 27 398
e 27 400
e 27 401
e 27 403
e 27 415
e 27 416
e 27 417
e 27 420
e 27 421
e 27 422
e 27 425
e 27 426
e 27 429
e 27 431
e 27 432
e 27 434
e 27 441
e 27 443
e 27 445
e 27 446
e 27 448
e 27 449
e 27 451
e 27 453
e 27 455
e 27 456
e 27 457
e 27 458
e 27 459
e 27 460
e 27 461
e 27 462
e 27 464
e 27 465
e 27 468
e 27 469
e 27 470
e 27 473
e 27 475
e 27 478
e 27 480
e 27 484
e 27 485
e 27 489
e 27 493
e 27 495
e 27 501
e 27 505
e 27 508
e 27 510
e 27 513
e 27 529
e 27 535
e 27 538
e 27 543
e 27 548
e 27 550
e 27 551
e 27 552
e 27 566
e 27 569
e 27 570
e 27 577
e 27 578
e 27 579
e 27 580
e 27 581
e 27 588
e 27 596
e 27 606
e 27 615
e 27 616
e 27 623
e 27 624
e 27 626
e 27 627
e 27 628
e 27 642
e 27 647
e 27 650
e 27 657
e 27 658
e 27 663
e 27 668
e 27 672
e 27 673
e 27 677
e 27 688
e 27 691
e 27 694
e 27 696
e 27 697
e 27 699
e 27 703
e 27 706
e 27 707
e 27 709
e 27 712
e 27 721
e 27 730
e 27 732
e 27 735
e 27 736
e 27 740
e 27 741
e 27 742
e 27 744
e 27 745
e 27 747
e 27 748
e 27 752
e 27 753
e 27 757
e 27 759
e 27 761
e 27 768
e 27 769
e 27 770
e 27 778
e 27 794
e 27 796
e 27 799
e 27 801
e 27 803
e 27 811
e 27 822
e 27 827
e 27 828
e 27 830
e 27 835
e 27 836
e 27 840
e 27 848
e 27 854
e 28 29
e 28 30
e 28 31
e 28 32
e 28 33
e 28 34
e 28 35
e 28 36
e 28 37
e 28 38
e 28 39
e 28 40
e 28 43
e 28 44
e 28 46
e 28 48
e 28 53
e 28 59
e 28 60
e 28 61
e 28 62
e 28 63
e 28 64
e 28 65
e 28 69
e 28 71
e 28 75
e 28 77
e 28 78
e 28 79
e 28 80
e 28 81
e 28 85
e 28 86
e 28 88
e 28 89
e 28 90
e 28 91
e 28 92
e 28 94
e 28 95
e 28 97
e 28 101
e 28 103
e 28 107
e 28 108
e 28 109
e 28 111
e 28 117
e 28 119
e 28 120
e 28 124
e 28 125
e 28 126
e 28 128
e 28 130
e 28 131
e 28 132
e 28 133
e 28 134
e 28 135
e 28 137
e 28 139
e 28 140
e 28 141
e 28 142
e 28 143
e 28 145
e 28 150
e 28 152
e 28 153
e 28 156
e 28 157
e 28 158
e 28 161
e 28 162
e 28 164
e 28 166
e 28 172
e 28 174
e 28 175
e 28 176
e 28 177
e 28 179
e 28 180
e 28 181
e 28 182
e 28 189
e 28 190
e 28 192
e 28 195
e 28 198
e 28 199
e 28 201
e 28 202
e 28 203
e 28 204
e 28 206
e 28 207
e 28 210
e 28 211
e 28 212
e 28 213
e 28 214
e 28 216
e 28 217
e 28 219
e 28 220
e 28 222
e 28 223
e 28 225
e 28 226
e 28 227
e 28 228
e 28 231
e 28 232
e 28 235
e 28 236
e 28 237
e 28 239
e 28 241
e 28 244
e 28 246
e 28 247
e 28 248
e 28 251
e 28 253
e 28 254
e 28 255
e 28 256
e 28 257
e 28 261
e 28 262
e 28 264
e 28 265
e 28 266
e 28 267
e 28 268
e 28 269
e 28 272
e 28 273
e 28 274
e 28 275
e 28 276
e 28 278
e 28 279
e 28 280
e 28 282
e 28 283
e 28 284
e 28 287
e 28 289
e 28 290
e 28 292
e 28 293
e 28 298
e 28 299
e 28 300
e 28 302
e 28 306
e 28 307
e 28 308
e 28 309
e 28 310
e 28 313
e 28 314
e 28 316
e 28 317
e 28 318
e 28 319
e 28 320
e 28 321
e 28 322
e 28 325
e 28 326
e 28 328
e 28 329
e 28 330
e 28 332
e 28 334
e 28 336
e 28 337
e 28 338
e 28 339
e 28 342
e 28 343
e 28 344
e 28 345
e 28 347
e 28 348
e 28 350
e 28 351
e 28 352
e 28 355
e 28 356
e 28 357
e 28 358
e 28 359
e 28 361
e 28 364
e 28 365
e 28 367
e 28 368
e 28 369
e 28 370
e 28 371
e 28 372
e 28 373
e 28 374
e 28 375
e 28 376
e 28 377
e 28 378
e 28 379
e 28 380
e 28 382
e 28 383
e 28 385
e 28 386
e 28 387
e 28 388
e 28 390
e 28 391
e 28 392
e 28 393
e 28 394
e 28 395
e 28 397
e 28 398
e 28 400
e 28 404
e 28 406
e 28 407
e 28 412
e 28 413
e 28 417
e 28 418
e 28 419
e 28 421
e 28 422
e 28 423
e 28 424
e 28 425
e 28 426
e 28 427
e 28 428
e 28 430
e 28 431
e 28 432
e 28 433
e 28 434
e 28 435
e 28 436
e 28 437
e 28 438
e 28 440
e 28 442
e 28 443
e 28 444
e 28 447
e 28 448
e 28 450
e 28 452
e 28 454
e 28 455
e 28 456
e 28 457
e 28 458
e 28 459
e 28 460
e 28 463
e 28 466
e 28 467
e 28 468
e 28 469
e 28 470
e 28 471
e 28 472
e 28 477
e 28 478
e 28 479
e 28 480
e 28 483
e 28 484
e 28 487
e 28 488
e 28 489
e 28 490
e 28 491
e 28 492
e 28 493
e 28 494
e 28 495
e 28 496
e 28 497
e 28 498
e 28 499
e 28 500
e 28 501
e 28 502
e 28 503
e 28 504
e 28 505
e 28 506
e 28 507
e 28 508
e 28 509
e 28 510
e 28 511
e 28 512
e 28 513
e 28 514
e 28 515
e 28 516
e 28 520
e 28 522
e 28 524
e 28 529
e 28 535
e 28 536
e 28 537
e 28 538
e 28 539
e 28 543
e 28 548
e 28 549
e 28 550
e 28 551
e 28 552
e 28 553
e 28 554
e 28 555
e 28 556
e 28 558
e 28 559
e 28 569
e 28 570
e 28 578
e 28 579
e 28 582
e 28 583
e 28 584
e 28 586
e 28 588
e 28 589
e 28 591
e 28 595
e 28 596
e 28 597
e 28 600
e 28 604
e 28 606
e 28 609
e 28 610
e 28 611
e 28 613
e 28 615
e 28 616
e 28 624
e 28 625
e 28 626
e 28 627
e 28 628
e 28 633
e 28 638
e 28 641
e 28 642
e 28 644
e 28 647
e 28 652
e 28 653
e 28 654
e 28 657
e 28 658
e 28 660
e 28 661
e 28 664
e 28 667
e 28 668
e 28 670
e 28 672
e 28 673
e 28 674
e 28 677
e 28 679
e 28 681
e 28 682
e 28 683
e 28 684
e 28 686
e 28 687
e 28 688
e 28 689
e 28 690
e 28 691
e 28 695
e 28 697
e 28 698
e 28 699
e 28 700
e 28 701
e 28 703
e 28 704
e 28 707
e 28 709
e 28 712
e 28 716
e 28 720
e 28 721
e 28 724
e 28 725
e 28 727
e 28 730
e 28 731
e 28 732
e 28 733
e 28 734
e 28 735
e 28 737
e 28 738
e 28 740
e 28 741
e 28 742
e 28 744
e 28 745
e 28 747
e 28 748
e 28 751
e 28 752
e 28 753
e 28 754
e 28 756
e 28 757
e 28 758
e 28 759
e 28 764
e 28 766
e 28 767
e 28 768
e 28 769
e 28 770
e 28 771
e 28 772
e 28 773
e 28 774
e 28 775
e 28 777
e 28 778
e 28 780
e 28 781
e 28 782
e 28 783
e 28 788
e 28 794
e 28 795
e 28 796
e 28 799
e 28 801
e 28 803
e 28 804
e 28 805
e 28 806
e 28 808
e 28 809
e 28 810
e 28 811
e 28 812
e 28 813
e 28 814
e 28 815
e 28 816
e 28 818
e 28 821
e 28 823
e 28 824
e 28 825
e 28 826
e 28 828
e 28 830
e 28 831
e 28 834
e 28 838
e 28 840
e 28 842
e 28 843
e 28 847
e 28 853
e 28 855
e 29 31
e 29 32
e 29 33
e 29 34
e 29 35
e 29 37
e 29 38
e 29 39
e 29 40
e 29 43
e 29 44
e 29 46
e 29 50
e 29 55
e 29 59
e 29 62
e 29 63
e 29 65
e 29 71
e 29 72
e 29 73
e 29 74
e 29 75
e 29 76
e 29 77
e 29 78
e 29 79
e 29 80
e 29 81
e 29 85
e 29 89
e 29 92
e 29 94
e 29 95
e 29 97
e 29 99
e 29 101
e 29 103
e 29 107
e 29 108
e 29 111
e 29 116
e 29 117
e 29 118
e 29 120
e 29 121
e 29 125
e 29 126
e 29 128
e 29 130
e 29 131
e 29 132
e 29 133
e 29 135
e 29 137
e 29 138
e 29 139
e 29 140
e 29 142
e 29 143
e 29 144
e 29 148
e 29 152
e 29 153
e 29 154
e 29 157
e 29 161
e 29 162
e 29 164
e 29 165
e 29 166
e 29 167
e 29 170
e 29 173
e 29 174
e 29 175
e 29 176
e 29 177
e 29 178
e 29 179
e 29 180
e 29 181
e 29 182
e 29 184
e 29 187
e 29 189
e 29 192
e 29 198
e 29 199
e 29 201
e 29 202
e 29 203
e 29 204
e 29 205
e 29 206
e 29 207
e 29 208
e 29 209
e 29 210
e 29 211
e 29 212
e 29 213
e 29 215
e 29 217
e 29 219
e 29 220
e 29 222
e 29 223
e 29 224
e 29 225
e 29 226
e 29 227
e 29 228
e 29 229
e 29 231
e 29 235
e 29 236
e 29 237
e 29 238
e 29 239
e 29 240
e 29 241
e 29 244
e 29 245
e 29 246
e 29 247
e 29 248
e 29 251
e 29 255
e 29 257
e 29 260
e 29 261
e 29 262
e 29 263
e 29 264
e 29 265
e 29 267
e 29 270
e 29 271
e 29 272
e 29 274
e 29 275
e 29 276
e 29 277
e 29 280
e 29 283
e 29 284
e 29 287
e 29 288
e 29 289
e 29 290
e 29 292
e 29 293
e 29 296
e 29 297
e 29 299
e 29 302
e 29 305
e 29 306
e 29 307
e 29 311
e 29 312
e 29 313
e 29 314
e 29 316
e 29 318
e 29 319
e 29 322
e 29 323
e 29 324
e 29 325
e 29 326
e 29 327
e 29 328
e 29 329
e 29 330
e 29 331
e 29 332
e 29 334
e 29 335
e 29 336
e 29 338
e 29 339
e 29 342
e 29 344
e 29 345
e 29 346
e 29 347
e 29 348
e 29 349
e 29 350
e 29 351
e 29 352
e 29 354
e 29 356
e 29 357
e 29 358
e 29 359
e 29 361
e 29 362
e 29 364
e 29 365
e 29 367
e 29 368
e 29 369
e 29 370
e 29 371
e 29 372
e 29 374
e 29 375
e 29 376
e 29 377
e 29 378
e 29 379
e 29 380
e 29 381
e 29 383
e 29 384
e 29 385
e 29 386
e 29 388
e 29 389
e 29 390
e 29 392
e 29 394
e 29 395
e 29 396
e 29 397
e 29 399
e 29 400
e 29 401
e 29 403
e 29 409
e 29 410
e 29 411
e 29 412
e 29 413
e 29 415
e 29 416
e 29 417
e 29 418
e 29 419
e 29 420
e 29 422
e 29 423
e 29 424
e 29 425
e 29 426
e 29 427
e 29 428
e 29 429
e 29 430
e 29 431
e 29 432
e 29 434
e 29 435
e 29 437
e 29 438
e 29 439
e 29 440
e 29 441
e 29 443
e 29 444
e 29 445
e 29 446
e 29 447
e 29 448
e 29 449
e 29 450
e 29 452
e 29 453
e 29 454
e 29 455
e 29 456
e 29 457
e 29 458
e 29 459
e 29 460
e 29 462
e 29 463
e 29 464
e 29 465
e 29 466
e 29 467
e 29 468
e 29 469
e 29 470
e 29 471
e 29 472
e 29 473
e 29 474
e 29 476
e 29 477
e 29 478
e 29 479
e 29 480
e 29 483
e 29 485
e 29 489
e 29 502
e 29 504
e 29 507
e 29 508
e 29 509
e 29 510
e 29 516
e 29 522
e 29 529
e 29 531
e 29 535
e 29 538
e 29 542
e 29 543
e 29 548
e 29 550
e 29 552
e 29 569
e 29 570
e 29 588
e 29 589
e 29 596
e 29 602
e 29 607
e 29 608
e 29 613
e 29 615
e 29 616
e 29 623
e 29 627
e 29 629
e 29 636
e 29 642
e 29 644
e 29 647
e 29 654
e 29 657
e 29 672
e 29 675
e 29 676
e 29 690
e 29 695
e 29 697
e 29 699
e 29 704
e 29 708
e 29 711
e 29 714
e 29 715
e 29 721
e 29 723
e 29 724
e 29 732
e 29 734
e 29 739
e 29 740
e 29 741
e 29 742
e 29 748
e 29 751
e 29 752
e 29 757
e 29 759
e 29 766
e 29 770
e 29 771
e 29 774
e 29 779
e 29 780
e 29 785
e 29 788
e 29 796
e 29 798
e 29 799
e 29 800
e 29 801
e 29 803
e 29 808
e 29 810
e 29 818
e 29 822
e 29 824
e 29 832
e 29 834
e 29 836
e 29 840
e 29 842
e 29 843
e 29 844
e 29 848
e 29 851
e 29 854
e 29 855
e 30 32
e 30 33
e 30 34
e 30 36
e 30 38
e 30 62
e 30 71
e 30 77
e 30 80
e 30 81
e 30 128
e 30 131
e 30 133
e 30 157
e 30 174
e 30 211
e 30 219
e 30 227
e 30 278
e 30 284
e 30 287
e 30 338
e 30 355
e 30 356
e 30 385
e 30 398
e 30 406
e 30 423
e 30 424
e 30 431
e 30 444
e 30 466
e 31 32
e 31 33
e 31 34
e 31 35
e 31 37
e 31 40
e 31 43
e 31 48
e 31 50
e 31 59
e 31 62
e 31 63
e 31 67
e 31 69
e 31 70
e 31 71
e 31 77
e 31 78
e 31 79
e 31 80
e 31 81
e 31 82
e 31 83
e 31 88
e 31 89
e 31 95
e 31 97
e 31 101
e 31 105
e 31 106
e 31 107
e 31 108
e 31 111
e 31 117
e 31 119
e 31 122
e 31 123
e 31 127
e 31 128
e 31 130
e 31 131
e 31 132
e 31 134
e 31 135
e 31 139
e 31 140
e 31 147
e 31 151
e 31 152
e 31 155
e 31 156
e 31 157
e 31 160
e 31 162
e 31 165
e 31 166
e 31 174
e 31 176
e 31 179
e 31 180
e 31 181
e 31 183
e 31 185
e 31 187
e 31 189
e 31 192
e 31 195
e 31 197
e 31 198
e 31 199
e 31 200
e 31 201
e 31 203
e 31 204
e 31 206
e 31 207
e 31 208
e 31 210
e 31 211
e 31 212
e 31 213
e 31 217
e 31 219
e 31 220
e 31 222
e 31 224
e 31 226
e 31 227
e 31 230
e 31 231
e 31 232
e 31 239
e 31 240
e 31 241
e 31 244
e 31 246
e 31 247
e 31 251
e 31 252
e 31 255
e 31 257
e 31 258
e 31 259
e 31 260
e 31 262
e 31 263
e 31 264
e 31 266
e 31 271
e 31 272
e 31 273
e 31 274
e 31 277
e 31 278
e 31 282
e 31 283
e 31 284
e 31 287
e 31 290
e 31 291
e 31 292
e 31 293
e 31 294
e 31 296
e 31 298
e 31 299
e 31 300
e 31 301
e 31 302
e 31 303
e 31 304
e 31 305
e 31 307
e 31 308
e 31 309
e 31 314
e 31 315
e 31 316
e 31 326
e 31 327
e 31 328
e 31 330
e 31 331
e 31 334
e 31 337
e 31 344
e 31 346
e 31 347
e 31 355
e 31 356
e 31 357
e 31 358
e 31 363
e 31 364
e 31 366
e 31 367
e 31 368
e 31 372
e 31 373
e 31 376
e 31 378
e 31 380
e 31 382
e 31 383
e 31 390
e 31 394
e 31 399
e 31 400
e 31 404
e 31 405
e 31 406
e 31 407
e 31 412
e 31 414
e 31 415
e 31 417
e 31 419
e 31 421
e 31 423
e 31 424
e 31 425
e 31 426
e 31 429
e 31 431
e 31 432
e 31 436
e 31 437
e 31 439
e 31 440
e 31 441
e 31 444
e 31 452
e 31 453
e 31 457
e 31 462
e 31 467
e 31 468
e 31 469
e 31 472
e 31 473
e 31 474
e 31 475
e 31 476
e 31 477
e 31 478
e 31 479
e 31 480
e 32 33
e 32 34
e 32 36
e 32 38
e 32 40
e 32 46
e 32 50
e 32 53
e 32 54
e 32 55
e 32 56
e 32 59
e 32 62
e 32 67
e 32 69
e 32 71
e 32 77
e 32 80
e 32 81
e 32 83
e 32 89
e 32 101
e 32 105
e 32 106
e 32 107
e 32 108
e 32 109
e 32 117
e 32 121
e 32 127
e 32 128
e 32 131
e 32 132
e 32 133
e 32 139
e 32 152
e 32 157
e 32 160
e 32 162
e 32 166
e 32 173
e 32 174
e 32 175
e 32 176
e 32 181
e 32 189
e 32 192
e 32 193
e 32 197
e 32 198
e 32 199
e 32 200
e 32 202
e 32 203
e 32 204
e 32 206
e 32 210
e 32 211
e 32 212
e 32 213
e 32 214
e 32 215
e 32 217
e 32 219
e 32 220
e 32 222
e 32 225
e 32 226
e 32 227
e 32 231
e 32 239
e 32 241
e 32 244
e 32 246
e 32 249
e 32 250
e 32 251
e 32 254
e 32 255
e 32 257
e 32 258
e 32 260
e 32 261
e 32 264
e 32 265
e 32 268
e 32 278
e 32 282
e 32 284
e 32 287
e 32 290
e 32 292
e 32 293
e 32 296
e 32 300
e 32 302
e 32 303
e 32 304
e 32 307
e 32 314
e 32 317
e 32 321
e 32 326
e 32 327
e 32 329
e 32 330
e 32 334
e 32 338
e 32 340
e 32 343
e 32 346
e 32 347
e 32 355
e 32 356
e 32 361
e 32 363
e 32 364
e 32 367
e 32 368
e 32 372
e 32 373
e 32 375
e 32 376
e 32 378
e 32 380
e 32 383
e 32 385
e 32 386
e 32 395
e 32 398
e 32 399
e 32 400
e 32 404
e 32 405
e 32 406
e 32 407
e 32 413
e 32 417
e 32 418
e 32 422
e 32 423
e 32 424
e 32 425
e 32 427
e 32 429
e 32 430
e 32 431
e 32 436
e 32 437
e 32 439
e 32 442
e 32 444
e 32 448
e 32 450
e 32 456
e 32 462
e 32 463
e 32 466
e 32 467
e 32 470
e 32 471
e 32 474
e 32 478
e 32 480
e 32 493
e 32 494
e 32 497
e 32 502
e 32 507
e 32 509
e 32 516
e 32 517
e 32 524
e 32 526
e 32 531
e 32 535
e 32 538
e 32 542
e 32 543
e 32 548
e 32 550
e 32 556
e 32 557
e 32 565
e 32 569
e 32 570
e 32 588
e 32 590
e 32 592
e 32 595
e 32 596
e 32 602
e 32 607
e 32 608
e 32 610
e 32 616
e 32 622
e 32 627
e 32 629
e 32 635
e 32 637
e 32 638
e 32 644
e 32 647
e 32 657
e 32 661
e 32 665
e 32 667
e 32 672
e 32 674
e 32 675
e 32 678
e 32 679
e 32 687
e 32 697
e 32 701
e 32 702
e 32 704
e 32 705
e 32 708
e 32 714
e 32 715
e 32 716
e 32 720
e 32 722
e 32 723
e 32 724
e 32 729
e 32 740
e 32 741
e 32 742
e 32 743
e 32 744
e 32 746
e 32 751
e 32 752
e 32 755
e 32 757
e 32 759
e 32 769
e 32 770
e 32 774
e 32 778
e 32 779
e 32 780
e 32 796
e 32 797
e 32 807
e 32 810
e 32 824
e 32 833
e 32 837
e 32 842
e 32 849
e 32 850
e 32 852
e 33 34
e 33 35
e 33 36
e 33 37
e 33 38
e 33 40
e 33 46
e 33 50
e 33 53
e 33 55
e 33 58
e 33 59
e 33 62
e 33 63
e 33 66
e 33 68
e 33 69
e 33 71
e 33 77
e 33 78
e 33 79
e 33 80
e 33 81
e 33 83
e 33 87
e 33 89
e 33 92
e 33 95
e 33 101
e 33 107
e 33 108
e 33 111
e 33 117
e 33 125
e 33 127
e 33 128
e 33 130
e 33 131
e 33 132
e 33 133
e 33 135
e 33 139
e 33 143
e 33 144
e 33 152
e 33 154
e 33 157
e 33 160
e 33 161
e 33 162
e 33 164
e 33 165
e 33 166
e 33 174
e 33 176
e 33 181
e 33 182
e 33 184
e 33 185
e 33 189
e 33 191
e 33 192
e 33 193
e 33 197
e 33 198
e 33 199
e 33 203
e 33 204
e 33 206
e 33 208
e 33 210
e 33 211
e 33 212
e 33 213
e 33 216
e 33 217
e 33 218
e 33 219
e 33 222
e 33 225
e 33 226
e 33 227
e 33 228
e 33 230
e 33 231
e 33 235
e 33 236
e 33 237
e 33 238
e 33 239
e 33 240
e 33 241
e 33 242
e 33 244
e 33 246
e 33 247
e 33 251
e 33 254
e 33 255
e 33 257
e 33 258
e 33 260
e 33 264
e 33 268
e 33 271
e 33 272
e 33 274
e 33 276
e 33 277
e 33 278
e 33 284
e 33 286
e 33 287
e 33 290
e 33 292
e 33 293
e 33 295
e 33 296
e 33 300
e 33 304
e 33 305
e 33 307
e 33 311
e 33 314
e 33 319
e 33 321
e 33 329
e 33 330
e 33 332
e 33 334
e 33 335
e 33 338
e 33 339
e 33 340
e 33 342
e 33 343
e 33 344
e 33 345
e 33 346
e 33 347
e 33 348
e 33 349
e 33 352
e 33 355
e 33 356
e 33 367
e 33 368
e 33 369
e 33 372
e 33 373
e 33 375
e 33 376
e 33 378
e 33 379
e 33 380
e 33 384
e 33 385
e 33 386
e 33 389
e 33 390
e 33 394
e 33 395
e 33 396
e 33 398
e 33 400
e 33 404
e 33 406
e 33 413
e 33 416
e 33 417
e 33 418
e 33 420
e 33 421
e 33 422
e 33 423
e 33 424
e 33 425
e 33 429
e 33 430
e 33 431
e 33 433
e 33 436
e 33 437
e 33 442
e 33 443
e 33 444
e 33 450
e 33 452
e 33 453
e 33 456
e 33 457
e 33 460
e 33 462
e 33 463
e 33 464
e 33 465
e 33 466
e 33 467
e 33 469
e 33 471
e 33 472
e 33 473
e 33 474
e 33 477
e 33 478
e 33 480
e 34 36
e 34 38
e 34 48
e 34 50
e 34 53
e 34 55
e 34 59
e 34 62
e 34 63
e 34 69
e 34 71
e 34 77
e 34 79
e 34 80
e 34 81
e 34 88
e 34 89
e 34 95
e 34 97
e 34 99
e 34 101
e 34 107
e 34 108
e 34 116
e 34 117
e 34 118
e 34 119
e 34 125
e 34 128
e 34 130
e 34 131
e 34 132
e 34 133
e 34 139
e 34 140
e 34 154
e 34 157
e 34 161
e 34 162
e 34 164
e 34 174
e 34 176
e 34 181
e 34 184
e 34 192
e 34 198
e 34 204
e 34 208
e 34 211
e 34 212
e 34 213
e 34 219
e 34 220
e 34 222
e 34 224
e 34 225
e 34 227
e 34 228
e 34 237
e 34 239
e 34 245
e 34 246
e 34 248
e 34 257
e 34 260
e 34 272
e 34 278
e 34 280
e 34 282
e 34 284
e 34 287
e 34 288
e 34 293
e 34 295
e 34 296
e 34 300
e 34 307
e 34 311
e 34 312
e 34 314
e 34 319
e 34 322
e 34 323
e 34 326
e 34 327
e 34 329
e 34 330
e 34 332
e 34 334
e 34 335
e 34 338
e 34 339
e 34 342
e 34 343
e 34 344
e 34 346
e 34 347
e 34 354
e 34 355
e 34 356
e 34 357
e 34 358
e 34 361
e 34 368
e 34 369
e 34 372
e 34 379
e 34 380
e 34 383
e 34 384
e 34 385
e 34 388
e 34 390
e 34 398
e 34 400
e 34 401
e 34 406
e 34 412
e 34 413
e 34 417
e 34 419
e 34 420
e 34 422
e 34 423
e 34 424
e 34 426
e 34 430
e 34 431
e 34 436
e 34 437
e 34 438
e 34 444
e 34 448
e 34 449
e 34 453
e 34 454
e 34 456
e 34 458
e 34 459
e 34 460
e 34 463
e 34 464
e 34 465
e 34 466
e 34 467
e 34 469
e 34 471
e 34 472
e 34 474
e 34 478
e 34 480
e 35 37
e 35 40
e 35 59
e 35 79
e 35 101
e 35 130
e 35 132
e 35 135
e 35 139
e 35 152
e 35 162
e 35 198
e 35 211
e 35 231
e 35 244
e 35 247
e 35 251
e 35 284
e 35 334
e 35 347
e 35 400
e 35 425
e 36 38
e 36 62
e 36 71
e 36 77
e 36 80
e 36 81
e 36 128
e 36 131
e 36 133
e 36 157
e 36 174
e 36 211
e 36 219
e 36 227
e 36 278
e 36 284
e 36 287
e 36 338
e 36 355
e 36 356
e 36 385
e 36 398
e 36 406
e 36 423
e 36 424
e 36 431
e 36 444
e 36 466
e 37 40
e 37 46
e 37 49
e 37 50
e 37 55
e 37 58
e 37 59
e 37 62
e 37 63
e 37 71
e 37 72
e 37 73
e 37 74
e 37 75
e 37 76
e 37 77
e 37 78
e 37 79
e 37 80
e 37 81
e 37 87
e 37 92
e 37 93
e 37 94
e 37 95
e 37 96
e 37 97
e 37 98
e 37 99
e 37 100
e 37 101
e 37 103
e 37 108
e 37 111
e 37 117
e 37 120
e 37 130
e 37 131
e 37 132
e 37 135
e 37 139
e 37 152
e 37 153
e 37 157
e 37 162
e 37 165
e 37 166
e 37 174
e 37 176
e 37 177
e 37 178
e 37 180
e 37 181
e 37 182
e 37 185
e 37 186
e 37 188
e 37 189
e 37 192
e 37 198
e 37 199
e 37 203
e 37 204
e 37 206
e 37 207
e 37 210
e 37 211
e 37 212
e 37 213
e 37 215
e 37 217
e 37 219
e 37 222
e 37 223
e 37 225
e 37 226
e 37 227
e 37 231
e 37 234
e 37 235
e 37 236
e 37 238
e 37 239
e 37 241
e 37 242
e 37 244
e 37 246
e 37 247
e 37 251
e 37 260
e 37 262
e 37 263
e 37 264
e 37 265
e 37 269
e 37 271
e 37 272
e 37 274
e 37 276
e 37 277
e 37 280
e 37 283
e 37 284
e 37 286
e 37 287
e 37 289
e 37 290
e 37 292
e 37 293
e 37 294
e 37 300
e 37 304
e 37 305
e 37 306
e 37 307
e 37 315
e 37 316
e 37 319
e 37 326
e 37 328
e 37 329
e 37 330
e 37 334
e 37 338
e 37 339
e 37 344
e 37 347
e 37 348
e 37 349
e 37 350
e 37 356
e 37 357
e 37 358
e 37 359
e 37 363
e 37 366
e 37 367
e 37 368
e 37 372
e 37 376
e 37 377
e 37 378
e 37 380
e 37 383
e 37 386
e 37 387
e 37 390
e 37 393
e 37 395
e 37 399
e 37 400
e 37 406
e 37 412
e 37 417
e 37 418
e 37 420
e 37 422
e 37 423
e 37 424
e 37 425
e 37 426
e 37 429
e 37 430
e 37 432
e 37 439
e 37 441
e 37 443
e 37 444
e 37 448
e 37 452
e 37 453
e 37 457
e 37 462
e 37 467
e 37 469
e 37 475
e 37 476
e 37 477
e 37 479
e 38 40
e 38 50
e 38 59
e 38 60
e 38 61
e 38 62
e 38 63
e 38 64
e 38 71
e 38 77
e 38 78
e 38 79
e 38 80
e 38 81
e 38 89
e 38 95
e 38 101
e 38 107
e 38 108
e 38 125
e 38 128
e 38 130
e 38 131
e 38 133
e 38 139
e 38 140
e 38 143
e 38 144
e 38 153
e 38 156
e 38 157
e 38 158
e 38 161
e 38 164
e 38 166
e 38 174
e 38 177
e 38 181
e 38 192
e 38 201
e 38 203
e 38 211
e 38 213
e 38 219
e 38 225
e 38 227
e 38 228
e 38 232
e 38 244
e 38 247
e 38 251
e 38 262
e 38 267
e 38 274
e 38 278
e 38 279
e 38 280
e 38 284
e 38 287
e 38 302
e 38 308
e 38 309
e 38 311
e 38 313
e 38 318
e 38 319
e 38 325
e 38 328
e 38 330
e 38 332
e 38 334
e 38 335
e 38 336
e 38 338
e 38 355
e 38 356
e 38 358
e 38 365
e 38 367
e 38 371
e 38 372
e 38 379
e 38 380
e 38 382
e 38 384
e 38 385
e 38 387
e 38 388
e 38 389
e 38 390
e 38 391
e 38 392
e 38 393
e 38 394
e 38 395
e 38 398
e 38 406
e 38 419
e 38 423
e 38 424
e 38 428
e 38 431
e 38 433
e 38 434
e 38 435
e 38 444
e 38 452
e 38 455
e 38 456
e 38 457
e 38 459
e 38 460
e 38 466
e 38 468
e 38 471
e 38 474
e 39 40
e 39 44
e 39 57
e 39 59
e 39 62
e 39 63
e 39 65
e 39 71
e 39 77
e 39 78
e 39 79
e 39 80
e 39 81
e 39 85
e 39 86
e 39 89
e 39 92
e 39 94
e 39 101
e 39 103
e 39 107
e 39 108
e 39 111
e 39 121
e 39 125
e 39 130
e 39 131
e 39 132
e 39 133
e 39 139
e 39 142
e 39 149
e 39 157
e 39 161
e 39 162
e 39 164
e 39 165
e 39 166
e 39 179
e 39 181
e 39 183
e 39 190
e 39 192
e 39 196
e 39 198
e 39 199
e 39 201
e 39 203
e 39 204
e 39 206
e 39 209
e 39 211
e 39 213
e 39 222
e 39 224
e 39 225
e 39 227
e 39 228
e 39 232
e 39 234
e 39 235
e 39 236
e 39 237
e 39 244
e 39 247
e 39 248
e 39 251
e 39 260
e 39 261
e 39 263
e 39 264
e 39 265
e 39 267
e 39 272
e 39 273
e 39 279
e 39 280
e 39 283
e 39 284
e 39 287
e 39 289
e 39 290
e 39 292
e 39 293
e 39 294
e 39 296
e 39 299
e 39 300
e 39 302
e 39 303
e 39 310
e 39 314
e 39 318
e 39 319
e 39 322
e 39 325
e 39 327
e 39 328
e 39 329
e 39 330
e 39 331
e 39 332
e 39 334
e 39 336
e 39 338
e 39 342
e 39 344
e 39 347
e 39 350
e 39 351
e 39 356
e 39 358
e 39 359
e 39 365
e 39 367
e 39 368
e 39 369
e 39 370
e 39 372
e 39 374
e 39 375
e 39 380
e 39 381
e 39 385
e 39 387
e 39 388
e 39 389
e 39 391
e 39 392
e 39 393
e 39 394
e 39 395
e 39 397
e 39 398
e 39 400
e 39 415
e 39 417
e 39 418
e 39 425
e 39 428
e 39 433
e 39 435
e 39 438
e 39 440
e 39 441
e 39 443
e 39 447
e 39 452
e 39 454
e 39 455
e 39 456
e 39 457
e 39 458
e 39 462
e 39 464
e 39 466
e 39 468
e 39 472
e 39 473
e 39 477
e 40 44
e 40 46
e 40 50
e 40 55
e 40 59
e 40 60
e 40 61
e 40 62
e 40 64
e 40 65
e 40 69
e 40 70
e 40 71
e 40 77
e 40 78
e 40 79
e 40 80
e 40 81
e 40 86
e 40 89
e 40 92
e 40 94
e 40 95
e 40 101
e 40 103
e 40 105
e 40 106
e 40 107
e 40 108
e 40 109
e 40 110
e 40 111
e 40 112
e 40 113
e 40 114
e 40 117
e 40 121
e 40 125
e 40 126
e 40 128
e 40 130
e 40 131
e 40 132
e 40 133
e 40 135
e 40 139
e 40 140
e 40 143
e 40 144
e 40 147
e 40 148
e 40 152
e 40 153
e 40 154
e 40 155
e 40 156
e 40 157
e 40 158
e 40 159
e 40 160
e 40 161
e 40 162
e 40 163
e 40 164
e 40 165
e 40 166
e 40 167
e 40 168
e 40 169
e 40 170
e 40 172
e 40 173
e 40 174
e 40 175
e 40 176
e 40 177
e 40 179
e 40 180
e 40 181
e 40 192
e 40 197
e 40 198
e 40 199
e 40 200
e 40 201
e 40 202
e 40 203
e 40 204
e 40 205
e 40 206
e 40 208
e 40 211
e 40 213
e 40 217
e 40 219
e 40 220
e 40 222
e 40 224
e 40 225
e 40 227
e 40 228
e 40 229
e 40 231
e 40 232
e 40 243
e 40 244
e 40 245
e 40 246
e 40 247
e 40 248
e 40 251
e 40 252
e 40 259
e 40 260
e 40 261
e 40 262
e 40 263
e 40 264
e 40 265
e 40 267
e 40 270
e 40 274
e 40 279
e 40 280
e 40 282
e 40 283
e 40 284
e 40 285
e 40 287
e 40 290
e 40 291
e 40 292
e 40 293
e 40 296
e 40 297
e 40 298
e 40 299
e 40 300
e 40 301
e 40 302
e 40 303
e 40 307
e 40 308
e 40 309
e 40 310
e 40 311
e 40 312
e 40 313
e 40 314
e 40 318
e 40 319
e 40 322
e 40 323
e 40 324
e 40 325
e 40 326
e 40 327
e 40 328
e 40 329
e 40 330
e 40 331
e 40 332
e 40 334
e 40 335
e 40 336
e 40 338
e 40 342
e 40 344
e 40 345
e 40 346
e 40 347
e 40 350
e 40 351
e 40 352
e 40 353
e 40 354
e 40 355
e 40 356
e 40 358
e 40 359
e 40 361
e 40 363
e 40 364
e 40 365
e 40 367
e 40 368
e 40 371
e 40 372
e 40 374
e 40 375
e 40 376
e 40 379
e 40 380
e 40 381
e 40 382
e 40 384
e 40 385
e 40 387
e 40 388
e 40 389
e 40 390
e 40 391
e 40 392
e 40 393
e 40 394
e 40 395
e 40 397
e 40 398
e 40 399
e 40 400
e 40 402
e 40 405
e 40 408
e 40 409
e 40 410
e 40 411
e 40 414
e 40 415
e 40 416
e 40 417
e 40 418
e 40 419
e 40 420
e 40 422
e 40 424
e 40 425
e 40 428
e 40 429
e 40 431
e 40 433
e 40 434
e 40 435
e 40 437
e 40 440
e 40 441
e 40 445
e 40 446
e 40 447
e 40 451
e 40 452
e 40 453
e 40 454
e 40 455
e 40 456
e 40 457
e 40 458
e 40 459
e 40 460
e 40 462
e 40 463
e 40 464
e 40 466
e 40 468
e 40 470
e 40 471
e 40 472
e 40 473
e 40 474
e 40 475
e 40 476
e 41 50
e 41 62
e 41 78
e 41 101
e 41 103
e 41 107
e 41 108
e 41 134
e 41 139
e 41 147
e 41 160
e 41 166
e 41 192
e 41 203
e 41 204
e 41 211
e 41 213
e 41 227
e 41 228
e 41 247
e 41 248
e 41 260
e 41 262
e 41 267
e 41 281
e 41 282
e 41 284
e 41 285
e 41 287
e 41 291
e 41 299
e 41 326
e 41 334
e 41 388
e 41 389
e 41 414
e 41 462
e 42 80
e 42 93
e 42 94
e 42 97
e 42 108
e 42 139
e 42 199
e 42 210
e 42 227
e 42 234
e 42 286
e 42 294
e 42 366
e 42 417
e 43 53
e 43 62
e 43 69
e 43 75
e 43 78
e 43 79
e 43 89
e 43 101
e 43 108
e 43 121
e 43 131
e 43 134
e 43 140
e 43 155
e 43 156
e 43 157
e 43 166
e 43 172
e 43 174
e 43 176
e 43 179
e 43 181
e 43 192
e 43 202
e 43 211
e 43 213
e 43 220
e 43 225
e 43 232
e 43 241
e 43 247
e 43 252
e 43 257
e 43 260
e 43 262
e 43 264
e 43 273
e 43 280
e 43 282
e 43 284
e 43 287
e 43 289
e 43 293
e 43 298
e 43 299
e 43 306
e 43 308
e 43 309
e 43 316
e 43 318
e 43 328
e 43 334
e 43 338
e 43 346
e 43 351
e 43 354
e 43 358
e 43 359
e 43 366
e 43 382
e 43 385
e 43 393
e 43 394
e 43 400
e 43 419
e 43 426
e 43 427
e 43 443
e 43 447
e 43 453
e 43 454
e 43 459
e 43 468
e 43 474
e 43 480
e 43 483
e 43 484
e 43 485
e 43 489
e 43 493
e 43 494
e 43 495
e 43 499
e 43 502
e 43 504
e 43 505
e 43 509
e 43 510
e 43 515
e 43 516
e 43 522
e 43 526
e 43 529
e 43 531
e 43 533
e 43 535
e 43 538
e 43 543
e 43 548
e 43 549
e 43 550
e 43 569
e 43 570
e 43 578
e 43 586
e 43 589
e 43 595
e 43 596
e 43 607
e 43 610
e 43 613
e 43 615
e 43 616
e 43 617
e 43 619
e 43 622
e 43 623
e 43 626
e 43 627
e 43 629
e 43 641
e 43 642
e 43 647
e 43 651
e 43 657
e 43 659
e 43 661
e 43 663
e 43 666
e 43 667
e 43 668
e 43 675
e 43 676
e 43 679
e 43 686
e 43 688
e 43 692
e 43 703
e 43 704
e 43 707
e 43 710
e 43 712
e 43 715
e 43 716
e 43 717
e 43 719
e 43 728
e 43 731
e 43 736
e 43 738
e 43 739
e 43 742
e 43 744
e 43 745
e 43 751
e 43 757
e 43 759
e 43 763
e 43 766
e 43 767
e 43 769
e 43 775
e 43 778
e 43 779
e 43 780
e 43 782
e 43 783
e 43 785
e 43 796
e 43 799
e 43 801
e 43 806
e 43 807
e 43 809
e 43 814
e 43 816
e 43 817
e 43 821
e 43 822
e 43 823
e 43 824
e 43 825
e 43 826
e 43 828
e 43 829
e 43 831
e 43 834
e 43 835
e 43 839
e 43 843
e 43 844
e 43 847
e 43 850
e 43 851
e 43 852
e 43 855
e 44 48
e 44 50
e 44 51
e 44 52
e 44 59
e 44 62
e 44 63
e 44 65
e 44 71
e 44 77
e 44 80
e 44 81
e 44 85
e 44 86
e 44 89
e 44 101
e 44 103
e 44 107
e 44 108
e 44 111
e 44 128
e 44 129
e 44 130
e 44 131
e 44 132
e 44 139
e 44 148
e 44 154
e 44 162
e 44 164
e 44 166
e 44 176
e 44 179
e 44 192
e 44 194
e 44 196
e 44 199
e 44 201
e 44 203
e 44 204
e 44 206
e 44 208
e 44 211
e 44 220
e 44 221
e 44 222
e 44 225
e 44 227
e 44 228
e 44 229
e 44 232
e 44 233
e 44 243
e 44 244
e 44 245
e 44 246
e 44 247
e 44 248
e 44 251
e 44 262
e 44 263
e 44 267
e 44 270
e 44 272
e 44 274
e 44 279
e 44 280
e 44 282
e 44 284
e 44 287
e 44 292
e 44 293
e 44 299
e 44 301
e 44 307
e 44 310
e 44 312
e 44 315
e 44 322
e 44 324
e 44 326
e 44 329
e 44 330
e 44 333
e 44 334
e 44 336
e 44 338
e 44 341
e 44 344
e 44 345
e 44 346
e 44 347
e 44 351
e 44 353
e 44 354
e 44 356
e 44 358
e 44 360
e 44 361
e 44 365
e 44 368
e 44 372
e 44 374
e 44 375
e 44 380
e 44 385
e 44 388
e 44 389
e 44 392
e 44 394
e 44 395
e 44 398
e 44 400
e 44 402
e 44 405
e 44 408
e 44 414
e 44 415
e 44 425
e 44 428
e 44 433
e 44 452
e 44 453
e 44 454
e 44 456
e 44 462
e 44 466
e 44 473
e 44 475
e 44 476
e 44 477
e 44 479
e 45 46
e 45 47
e 45 79
e 45 89
e 45 107
e 45 108
e 45 149
e 45 166
e 45 186
e 45 198
e 45 203
e 45 224
e 45 234
e 45 263
e 45 292
e 45 294
e 45 300
e 45 302
e 45 303
e 45 330
e 45 356
e 45 417
e 45 441
e 46 47
e 46 49
e 46 50
e 46 53
e 46 59
e 46 62
e 46 63
e 46 69
e 46 71
e 46 72
e 46 73
e 46 74
e 46 75
e 46 76
e 46 77
e 46 78
e 46 79
e 46 80
e 46 81
e 46 89
e 46 92
e 46 95
e 46 101
e 46 107
e 46 108
e 46 117
e 46 121
e 46 124
e 46 125
e 46 130
e 46 131
e 46 132
e 46 139
e 46 141
e 46 149
e 46 154
e 46 162
e 46 165
e 46 166
e 46 174
e 46 175
e 46 176
e 46 177
e 46 178
e 46 181
e 46 182
e 46 186
e 46 188
e 46 189
e 46 192
e 46 193
e 46 198
e 46 199
e 46 202
e 46 203
e 46 204
e 46 206
e 46 207
e 46 208
e 46 210
e 46 211
e 46 213
e 46 215
e 46 216
e 46 217
e 46 219
e 46 220
e 46 222
e 46 224
e 46 225
e 46 226
e 46 227
e 46 228
e 46 234
e 46 235
e 46 238
e 46 241
e 46 242
e 46 244
e 46 246
e 46 257
e 46 260
e 46 262
e 46 263
e 46 265
e 46 268
e 46 269
e 46 272
e 46 273
e 46 275
e 46 276
e 46 284
e 46 286
e 46 287
e 46 290
e 46 292
e 46 293
e 46 294
e 46 296
e 46 299
e 46 300
e 46 302
e 46 303
e 46 304
e 46 305
e 46 306
e 46 307
e 46 316
e 46 317
e 46 318
e 46 319
e 46 321
e 46 329
e 46 330
e 46 334
e 46 338
e 46 342
e 46 343
e 46 344
e 46 345
e 46 347
e 46 352
e 46 356
e 46 367
e 46 370
e 46 372
e 46 373
e 46 377
e 46 378
e 46 380
e 46 383
e 46 386
e 46 389
e 46 390
e 46 394
e 46 395
e 46 400
e 46 404
e 46 413
e 46 416
e 46 417
e 46 418
e 46 420
e 46 422
e 46 424
e 46 426
e 46 427
e 46 429
e 46 430
e 46 435
e 46 436
e 46 437
e 46 438
e 46 439
e 46 440
e 46 441
e 46 442
e 46 444
e 46 447
e 46 450
e 46 452
e 46 453
e 46 455
e 46 456
e 46 457
e 46 460
e 46 463
e 46 470
e 46 472
e 46 473
e 46 474
e 46 476
e 46 477
e 46 478
e 46 507
e 46 516
e 46 535
e 46 542
e 46 550
e 46 569
e 46 570
e 46 578
e 46 586
e 46 588
e 46 596
e 46 602
e 46 608
e 46 616
e 46 627
e 46 641
e 46 642
e 46 644
e 46 654
e 46 679
e 46 687
e 46 697
e 46 707
e 46 708
e 46 714
e 46 715
e 46 723
e 46 724
e 46 728
e 46 739
e 46 740
e 46 751
e 46 756
e 46 757
e 46 759
e 46 763
e 46 774
e 46 796
e 46 799
e 46 807
e 46 809
e 46 817
e 46 854
e 47 79
e 47 89
e 47 107
e 47 108
e 47 149
e 47 166
e 47 186
e 47 198
e 47 203
e 47 224
e 47 234
e 47 263
e 47 292
e 47 294
e 47 300
e 47 302
e 47 303
e 47 330
e 47 356
e 47 417
e 47 441
e 48 50
e 48 59
e 48 62
e 48 71
e 48 77
e 48 80
e 48 88
e 48 101
e 48 103
e 48 119
e 48 128
e 48 129
e 48 132
e 48 139
e 48 148
e 48 150
e 48 164
e 48 174
e 48 189
e 48 192
e 48 194
e 48 207
e 48 212
e 48 222
e 48 229
e 48 233
e 48 235
e 48 239
e 48 243
e 48 262
e 48 263
e 48 270
e 48 280
e 48 281
e 48 282
e 48 284
e 48 285
e 48 287
e 48 293
e 48 299
e 48 314
e 48 315
e 48 326
e 48 330
e 48 333
e 48 334
e 48 336
e 48 341
e 48 347
e 48 354
e 48 357
e 48 372
e 48 374
e 48 376
e 48 380
e 48 383
e 48 388
e 48 390
e 48 398
e 48 400
e 48 402
e 48 412
e 48 414
e 48 425
e 48 426
e 48 437
e 48 462
e 48 467
e 48 469
e 48 472
e 48 479
e 48 480
e 49 81
e 49 108
e 49 117
e 49 131
e 49 139
e 49 166
e 49 177
e 49 178
e 49 182
e 49 188
e 49 189
e 49 192
e 49 203
e 49 206
e 49 207
e 49 215
e 49 217
e 49 219
e 49 225
e 49 226
e 49 227
e 49 241
e 49 242
e 49 246
e 49 262
e 49 269
e 49 286
e 49 290
e 49 292
e 49 304
e 49 306
e 49 347
e 49 378
e 49 383
e 49 426
e 49 476
e 50 51
e 50 52
e 50 53
e 50 54
e 50 55
e 50 56
e 50 62
e 50 63
e 50 71
e 50 77
e 50 78
e 50 79
e 50 81
e 50 88
e 50 89
e 50 92
e 50 95
e 50 101
e 50 102
e 50 103
e 50 107
e 50 108
e 50 109
e 50 111
e 50 125
e 50 128
e 50 129
e 50 130
e 50 131
e 50 132
e 50 134
e 50 136
e 50 139
e 50 143
e 50 144
e 50 147
e 50 148
e 50 154
e 50 157
e 50 160
e 50 161
e 50 162
e 50 164
e 50 166
e 50 173
e 50 174
e 50 176
e 50 185
e 50 187
e 50 191
e 50 192
e 50 194
e 50 195
e 50 198
e 50 199
e 50 203
e 50 204
e 50 206
e 50 208
e 50 210
e 50 211
e 50 213
e 50 215
e 50 219
e 50 220
e 50 221
e 50 222
e 50 227
e 50 228
e 50 229
e 50 233
e 50 235
e 50 239
e 50 240
e 50 241
e 50 243
e 50 244
e 50 245
e 50 246
e 50 247
e 50 248
e 50 249
e 50 250
e 50 251
e 50 260
e 50 262
e 50 263
e 50 267
e 50 270
e 50 272
e 50 275
e 50 280
e 50 281
e 50 282
e 50 284
e 50 285
e 50 286
e 50 287
e 50 290
e 50 291
e 50 292
e 50 293
e 50 295
e 50 296
e 50 299
e 50 300
e 50 305
e 50 306
e 50 310
e 50 311
e 50 312
e 50 315
e 50 319
e 50 324
e 50 326
e 50 329
e 50 330
e 50 332
e 50 334
e 50 335
e 50 341
e 50 342
e 50 344
e 50 345
e 50 346
e 50 347
e 50 353
e 50 354
e 50 356
e 50 360
e 50 361
e 50 363
e 50 367
e 50 368
e 50 372
e 50 377
e 50 378
e 50 379
e 50 380
e 50 384
e 50 386
e 50 388
e 50 389
e 50 390
e 50 395
e 50 399
e 50 400
e 50 407
e 50 408
e 50 413
e 50 414
e 50 416
e 50 417
e 50 423
e 50 424
e 50 425
e 50 429
e 50 436
e 50 439
e 50 442
e 50 443
e 50 447
e 50 450
e 50 452
e 50 453
e 50 456
e 50 457
e 50 460
e 50 462
e 50 463
e 50 466
e 50 468
e 50 471
e 50 473
e 50 474
e 50 475
e 50 476
e 50 477
e 50 478
e 50 479
e 50 480
e 50 854
e 51 52
e 51 62
e 51 129
e 51 148
e 51 154
e 51 164
e 51 199
e 51 204
e 51 211
e 51 220
e 51 221
e 51 222
e 51 229
e 51 233
e 51 243
e 51 245
e 51 246
e 51 263
e 51 270
e 51 280
e 51 282
e 51 299
e 51 310
e 51 312
e 51 324
e 51 334
e 51 346
e 51 353
e 51 354
e 51 360
e 51 361
e 51 388
e 51 408
e 51 453
e 51 475
e 52 62
e 52 129
e 52 148
e 52 154
e 52 164
e 52 199
e 52 204
e 52 211
e 52 220
e 52 221
e 52 222
e 52 229
e 52 233
e 52 243
e 52 245
e 52 246
e 52 263
e 52 270
e 52 280
e 52 282
e 52 299
e 52 310
e 52 312
e 52 324
e 52 334
e 52 346
e 52 353
e 52 354
e 52 360
e 52 361
e 52 388
e 52 408
e 52 453
e 52 475
e 53 54
e 53 55
e 53 56
e 53 59
e 53 62
e 53 63
e 53 69
e 53 75
e 53 78
e 53 80
e 53 81
e 53 89
e 53 92
e 53 101
e 53 107
e 53 108
e 53 109
e 53 115
e 53 121
e 53 125
e 53 126
e 53 131
e 53 132
e 53 139
e 53 142
e 53 143
e 53 157
e 53 162
e 53 173
e 53 174
e 53 175
e 53 176
e 53 181
e 53 190
e 53 192
e 53 193
e 53 199
e 53 202
e 53 204
e 53 206
e 53 210
e 53 211
e 53 213
e 53 215
e 53 216
e 53 219
e 53 220
e 53 223
e 53 225
e 53 226
e 53 227
e 53 230
e 53 237
e 53 239
e 53 241
e 53 244
e 53 245
e 53 246
e 53 249
e 53 250
e 53 251
e 53 257
e 53 260
e 53 261
e 53 264
e 53 267
e 53 268
e 53 272
e 53 273
e 53 274
e 53 280
e 53 282
e 53 284
e 53 287
e 53 290
e 53 293
e 53 295
e 53 296
e 53 298
e 53 299
e 53 300
e 53 307
e 53 314
e 53 316
e 53 317
e 53 318
e 53 319
e 53 321
e 53 326
e 53 329
e 53 330
e 53 334
e 53 338
e 53 339
e 53 342
e 53 343
e 53 345
e 53 346
e 53 347
e 53 349
e 53 351
e 53 352
e 53 354
e 53 356
e 53 364
e 53 366
e 53 367
e 53 369
e 53 372
e 53 373
e 53 380
e 53 382
e 53 383
e 53 386
e 53 387
e 53 391
e 53 392
e 53 393
e 53 394
e 53 395
e 53 396
e 53 400
e 53 404
e 53 407
e 53 413
e 53 415
e 53 417
e 53 418
e 53 422
e 53 424
e 53 427
e 53 429
e 53 430
e 53 432
e 53 436
e 53 437
e 53 440
e 53 442
e 53 443
e 53 444
e 53 447
e 53 449
e 53 450
e 53 451
e 53 452
e 53 453
e 53 454
e 53 456
e 53 457
e 53 459
e 53 460
e 53 461
e 53 462
e 53 463
e 53 468
e 53 469
e 53 471
e 53 474
e 53 478
e 53 480
e 53 483
e 53 484
e 53 489
e 53 496
e 53 501
e 53 502
e 53 504
e 53 507
e 53 508
e 53 509
e 53 513
e 53 515
e 53 516
e 53 520
e 53 521
e 53 522
e 53 523
e 53 525
e 53 526
e 53 531
e 53 533
e 53 535
e 53 538
e 53 543
e 53 548
e 53 549
e 53 550
e 53 551
e 53 552
e 53 554
e 53 555
e 53 556
e 53 558
e 53 567
e 53 568
e 53 569
e 53 570
e 53 578
e 53 586
e 53 588
e 53 589
e 53 595
e 53 601
e 53 613
e 53 615
e 53 616
e 53 620
e 53 623
e 53 624
e 53 625
e 53 627
e 53 628
e 53 629
e 53 630
e 53 631
e 53 632
e 53 633
e 53 639
e 53 640
e 53 641
e 53 642
e 53 643
e 53 647
e 53 649
e 53 654
e 53 655
e 53 656
e 53 657
e 53 659
e 53 660
e 53 661
e 53 664
e 53 666
e 53 670
e 53 671
e 53 672
e 53 674
e 53 676
e 53 679
e 53 687
e 53 688
e 53 691
e 53 695
e 53 701
e 53 704
e 53 706
e 53 707
e 53 710
e 53 717
e 53 718
e 53 719
e 53 720
e 53 721
e 53 722
e 53 725
e 53 728
e 53 729
e 53 735
e 53 739
e 53 741
e 53 742
e 53 744
e 53 745
e 53 746
e 53 749
e 53 751
e 53 756
e 53 757
e 53 759
e 53 760
e 53 762
e 53 769
e 53 770
e 53 772
e 53 773
e 53 774
e 53 776
e 53 778
e 53 781
e 53 782
e 53 784
e 53 786
e 53 787
e 53 789
e 53 794
e 53 796
e 53 797
e 53 799
e 53 800
e 53 803
e 53 804
e 53 805
e 53 807
e 53 809
e 53 812
e 53 813
e 53 814
e 53 816
e 53 817
e 53 819
e 53 820
e 53 824
e 53 825
e 53 828
e 53 829
e 53 830
e 53 831
e 53 832
e 53 833
e 53 835
e 53 836
e 53 843
e 53 844
e 53 845
e 53 846
e 53 848
e 53 849
e 53 850
e 53 852
e 53 853
e 53 854
e 54 55
e 54 56
e 54 62
e 54 101
e 54 107
e 54 108
e 54 109
e 54 157
e 54 173
e 54 174
e 54 192
e 54 213
e 54 215
e 54 241
e 54 249
e 54 250
e 54 251
e 54 282
e 54 290
e 54 326
e 54 329
e 54 386
e 54 395
e 54 407
e 54 417
e 54 436
e 54 442
e 54 456
e 54 462
e 54 471
e 55 56
e 55 58
e 55 59
e 55 62
e 55 63
e 55 69
e 55 71
e 55 78
e 55 79
e 55 80
e 55 81
e 55 87
e 55 88
e 55 89
e 55 95
e 55 101
e 55 102
e 55 103
e 55 107
e 55 108
e 55 109
e 55 111
e 55 115
e 55 117
e 55 125
e 55 126
e 55 128
e 55 130
e 55 131
e 55 132
e 55 140
e 55 154
e 55 157
e 55 161
e 55 162
e 55 164
e 55 165
e 55 166
e 55 167
e 55 170
e 55 171
e 55 173
e 55 174
e 55 176
e 55 177
e 55 180
e 55 181
e 55 182
e 55 184
e 55 185
e 55 189
e 55 191
e 55 192
e 55 195
e 55 199
e 55 203
e 55 204
e 55 206
e 55 207
e 55 210
e 55 211
e 55 212
e 55 213
e 55 215
e 55 217
e 55 220
e 55 221
e 55 222
e 55 224
e 55 225
e 55 227
e 55 229
e 55 230
e 55 236
e 55 238
e 55 241
e 55 242
e 55 244
e 55 245
e 55 246
e 55 248
e 55 249
e 55 250
e 55 251
e 55 257
e 55 260
e 55 262
e 55 263
e 55 264
e 55 267
e 55 270
e 55 272
e 55 280
e 55 282
e 55 286
e 55 287
e 55 288
e 55 290
e 55 292
e 55 293
e 55 296
e 55 300
e 55 302
e 55 304
e 55 306
e 55 314
e 55 317
e 55 318
e 55 319
e 55 323
e 55 324
e 55 325
e 55 326
e 55 327
e 55 329
e 55 330
e 55 332
e 55 334
e 55 335
e 55 342
e 55 344
e 55 346
e 55 347
e 55 349
e 55 354
e 55 356
e 55 358
e 55 360
e 55 364
e 55 366
e 55 367
e 55 368
e 55 372
e 55 376
e 55 377
e 55 378
e 55 380
e 55 381
e 55 382
e 55 384
e 55 386
e 55 387
e 55 388
e 55 389
e 55 390
e 55 391
e 55 392
e 55 394
e 55 395
e 55 396
e 55 401
e 55 403
e 55 406
e 55 407
e 55 415
e 55 416
e 55 417
e 55 420
e 55 421
e 55 422
e 55 423
e 55 424
e 55 429
e 55 431
e 55 432
e 55 434
e 55 436
e 55 439
e 55 441
e 55 442
e 55 443
e 55 444
e 55 445
e 55 446
e 55 448
e 55 449
e 55 450
e 55 451
e 55 452
e 55 453
e 55 455
e 55 456
e 55 457
e 55 458
e 55 459
e 55 460
e 55 461
e 55 462
e 55 464
e 55 465
e 55 468
e 55 469
e 55 471
e 55 473
e 55 475
e 55 477
e 55 478
e 55 480
e 55 854
e 56 62
e 56 101
e 56 107
e 56 108
e 56 109
e 56 157
e 56 173
e 56 174
e 56 192
e 56 213
e 56 215
e 56 241
e 56 249
e 56 250
e 56 251
e 56 282
e 56 290
e 56 326
e 56 329
e 56 386
e 56 395
e 56 407
e 56 417
e 56 436
e 56 442
e 56 456
e 56 462
e 56 471
e 57 59
e 57 79
e 57 89
e 57 101
e 57 107
e 57 108
e 57 149
e 57 165
e 57 183
e 57 198
e 57 199
e 57 203
e 57 204
e 57 224
e 57 234
e 57 260
e 57 263
e 57 264
e 57 287
e 57 292
e 57 294
e 57 300
e 57 302
e 57 303
e 57 314
e 57 330
e 57 331
e 57 342
e 57 356
e 57 394
e 57 417
e 57 440
e 57 441
e 57 472
e 58 59
e 58 71
e 58 80
e 58 81
e 58 101
e 58 108
e 58 117
e 58 185
e 58 189
e 58 192
e 58 204
e 58 210
e 58 212
e 58 225
e 58 227
e 58 238
e 58 242
e 58 244
e 58 287
e 58 293
e 58 300
e 58 304
e 58 347
e 58 356
e 58 372
e 58 376
e 58 378
e 58 406
e 58 424
e 58 429
e 58 444
e 58 453
e 59 62
e 59 63
e 59 65
e 59 67
e 59 69
e 59 70
e 59 71
e 59 77
e 59 78
e 59 79
e 59 80
e 59 81
e 59 83
e 59 85
e 59 86
e 59 87
e 59 89
e 59 92
e 59 94
e 59 95
e 59 97
e 59 101
e 59 103
e 59 105
e 59 106
e 59 107
e 59 108
e 59 111
e 59 117
e 59 119
e 59 121
e 59 122
e 59 123
e 59 124
e 59 125
e 59 126
e 59 128
e 59 130
e 59 131
e 59 132
e 59 135
e 59 139
e 59 140
e 59 141
e 59 142
e 59 143
e 59 147
e 59 149
e 59 150
e 59 152
e 59 153
e 59 154
e 59 155
e 59 157
e 59 160
e 59 161
e 59 162
e 59 164
e 59 165
e 59 166
e 59 174
e 59 176
e 59 179
e 59 180
e 59 181
e 59 182
e 59 183
e 59 184
e 59 185
e 59 189
e 59 190
e 59 192
e 59 196
e 59 197
e 59 198
e 59 199
e 59 200
e 59 201
e 59 202
e 59 203
e 59 204
e 59 206
e 59 207
e 59 208
e 59 210
e 59 211
e 59 212
e 59 213
e 59 216
e 59 217
e 59 219
e 59 220
e 59 222
e 59 224
e 59 225
e 59 226
e 59 227
e 59 228
e 59 230
e 59 231
e 59 232
e 59 233
e 59 234
e 59 235
e 59 236
e 59 238
e 59 239
e 59 240
e 59 241
e 59 242
e 59 244
e 59 246
e 59 247
e 59 248
e 59 251
e 59 257
e 59 259
e 59 260
e 59 261
e 59 263
e 59 264
e 59 265
e 59 267
e 59 271
e 59 272
e 59 273
e 59 274
e 59 275
e 59 276
e 59 277
e 59 278
e 59 279
e 59 280
e 59 281
e 59 283
e 59 284
e 59 287
e 59 290
e 59 291
e 59 292
e 59 293
e 59 294
e 59 296
e 59 298
e 59 299
e 59 300
e 59 301
e 59 302
e 59 303
e 59 304
e 59 305
e 59 307
e 59 308
e 59 309
e 59 310
e 59 313
e 59 314
e 59 315
e 59 316
e 59 317
e 59 318
e 59 319
e 59 321
e 59 322
e 59 325
e 59 326
e 59 327
e 59 328
e 59 329
e 59 330
e 59 331
e 59 332
e 59 333
e 59 334
e 59 335
e 59 336
e 59 337
e 59 338
e 59 340
e 59 341
e 59 342
e 59 344
e 59 345
e 59 346
e 59 347
e 59 350
e 59 351
e 59 352
e 59 355
e 59 356
e 59 357
e 59 358
e 59 359
e 59 362
e 59 363
e 59 365
e 59 366
e 59 367
e 59 368
e 59 369
e 59 370
e 59 371
e 59 372
e 59 373
e 59 374
e 59 375
e 59 376
e 59 378
e 59 379
e 59 380
e 59 381
e 59 382
e 59 383
e 59 384
e 59 385
e 59 386
e 59 387
e 59 388
e 59 389
e 59 390
e 59 391
e 59 392
e 59 393
e 59 394
e 59 395
e 59 396
e 59 397
e 59 398
e 59 399
e 59 400
e 59 401
e 59 402
e 59 403
e 59 405
e 59 406
e 59 408
e 59 412
e 59 414
e 59 415
e 59 416
e 59 417
e 59 418
e 59 419
e 59 420
e 59 421
e 59 423
e 59 424
e 59 425
e 59 426
e 59 428
e 59 429
e 59 430
e 59 431
e 59 432
e 59 433
e 59 435
e 59 436
e 59 437
e 59 438
e 59 439
e 59 440
e 59 441
e 59 442
e 59 444
e 59 447
e 59 448
e 59 450
e 59 452
e 59 453
e 59 454
e 59 455
e 59 456
e 59 459
e 59 460
e 59 462
e 59 463
e 59 464
e 59 465
e 59 466
e 59 467
e 59 468
e 59 469
e 59 472
e 59 473
e 59 475
e 59 476
e 59 477
e 59 478
e 59 479
e 59 480
e 59 483
e 59 501
e 59 508
e 59 509
e 59 538
e 59 548
e 59 549
e 59 569
e 59 570
e 59 583
e 59 584
e 59 589
e 59 595
e 59 623
e 59 638
e 59 642
e 59 647
e 59 652
e 59 654
e 59 657
e 59 670
e 59 672
e 59 676
e 59 681
e 59 683
e 59 684
e 59 685
e 59 689
e 59 693
e 59 703
e 59 704
e 59 707
e 59 721
e 59 733
e 59 741
e 59 742
e 59 744
e 59 747
e 59 752
e 59 788
e 59 796
e 59 811
e 59 815
e 59 818
e 59 823
e 59 838
e 59 840
e 59 842
e 59 843
e 59 851
e 59 855
e 60 61
e 60 62
e 60 63
e 60 64
e 60 77
e 60 79
e 60 80
e 60 86
e 60 89
e 60 108
e 60 130
e 60 133
e 60 139
e 60 140
e 60 156
e 60 157
e 60 192
e 60 198
e 60 201
e 60 211
e 60 232
e 60 247
e 60 251
e 60 279
e 60 308
e 60 309
e 60 310
e 60 322
e 60 328
e 60 330
e 60 334
e 60 365
e 60 385
e 60 387
e 60 391
e 60 393
e 60 398
e 60 400
e 60 419
e 60 425
e 60 428
e 60 433
e 61 62
e 61 63
e 61 64
e 61 77
e 61 79
e 61 80
e 61 86
e 61 89
e 61 108
e 61 130
e 61 133
e 61 139
e 61 140
e 61 156
e 61 157
e 61 192
e 61 198
e 61 201
e 61 211
e 61 232
e 61 247
e 61 251
e 61 279
e 61 308
e 61 309
e 61 310
e 61 322
e 61 328
e 61 330
e 61 334
e 61 365
e 61 385
e 61 387
e 61 391
e 61 393
e 61 398
e 61 400
e 61 419
e 61 425
e 61 428
e 61 433
e 62 63
e 62 64
e 62 65
e 62 67
e 62 69
e 62 71
e 62 72
e 62 73
e 62 74
e 62 75
e 62 76
e 62 77
e 62 78
e 62 79
e 62 80
e 62 81
e 62 82
e 62 83
e 62 85
e 62 86
e 62 88
e 62 89
e 62 92
e 62 94
e 62 95
e 62 97
e 62 101
e 62 103
e 62 104
e 62 105
e 62 106
e 62 107
e 62 108
e 62 109
e 62 110
e 62 111
e 62 112
e 62 113
e 62 114
e 62 117
e 62 119
e 62 121
e 62 122
e 62 123
e 62 124
e 62 125
e 62 126
e 62 128
e 62 129
e 62 130
e 62 131
e 62 132
e 62 133
e 62 134
e 62 136
e 62 137
e 62 139
e 62 140
e 62 141
e 62 142
e 62 143
e 62 144
e 62 145
e 62 147
e 62 148
e 62 152
e 62 153
e 62 154
e 62 156
e 62 157
e 62 158
e 62 160
e 62 161
e 62 162
e 62 164
e 62 165
e 62 166
e 62 167
e 62 170
e 62 171
e 62 173
e 62 174
e 62 175
e 62 176
e 62 177
e 62 178
e 62 179
e 62 180
e 62 181
e 62 183
e 62 184
e 62 185
e 62 187
e 62 189
e 62 190
e 62 191
e 62 192
e 62 193
e 62 194
e 62 195
e 62 197
e 62 198
e 62 199
e 62 200
e 62 201
e 62 202
e 62 203
e 62 204
e 62 205
e 62 206
e 62 207
e 62 208
e 62 210
e 62 211
e 62 212
e 62 213
e 62 214
e 62 215
e 62 216
e 62 217
e 62 219
e 62 220
e 62 221
e 62 222
e 62 223
e 62 224
e 62 226
e 62 227
e 62 228
e 62 229
e 62 230
e 62 231
e 62 232
e 62 233
e 62 235
e 62 236
e 62 237
e 62 238
e 62 239
e 62 240
e 62 241
e 62 243
e 62 244
e 62 245
e 62 246
e 62 247
e 62 248
e 62 249
e 62 250
e 62 251
e 62 252
e 62 253
e 62 254
e 62 255
e 62 256
e 62 257
e 62 259
e 62 260
e 62 261
e 62 262
e 62 263
e 62 264
e 62 265
e 62 266
e 62 267
e 62 268
e 62 270
e 62 271
e 62 272
e 62 273
e 62 274
e 62 275
e 62 276
e 62 277
e 62 278
e 62 279
e 62 280
e 62 281
e 62 282
e 62 283
e 62 284
e 62 285
e 62 286
e 62 287
e 62 288
e 62 290
e 62 291
e 62 292
e 62 293
e 62 294
e 62 296
e 62 297
e 62 298
e 62 299
e 62 300
e 62 301
e 62 302
e 62 303
e 62 304
e 62 305
e 62 306
e 62 307
e 62 308
e 62 309
e 62 310
e 62 311
e 62 312
e 62 313
e 62 314
e 62 315
e 62 316
e 62 317
e 62 318
e 62 319
e 62 320
e 62 321
e 62 322
e 62 323
e 62 324
e 62 325
e 62 326
e 62 327
e 62 328
e 62 329
e 62 330
e 62 331
e 62 332
e 62 334
e 62 335
e 62 336
e 62 337
e 62 338
e 62 341
e 62 342
e 62 343
e 62 344
e 62 345
e 62 346
e 62 347
e 62 349
e 62 350
e 62 351
e 62 352
e 62 353
e 62 354
e 62 355
e 62 356
e 62 357
e 62 358
e 62 359
e 62 360
e 62 361
e 62 362
e 62 363
e 62 364
e 62 365
e 62 366
e 62 367
e 62 368
e 62 370
e 62 371
e 62 372
e 62 373
e 62 374
e 62 375
e 62 376
e 62 377
e 62 378
e 62 379
e 62 380
e 62 381
e 62 383
e 62 384
e 62 385
e 62 386
e 62 387
e 62 388
e 62 389
e 62 390
e 62 391
e 62 392
e 62 393
e 62 394
e 62 395
e 62 396
e 62 397
e 62 398
e 62 399
e 62 400
e 62 403
e 62 404
e 62 405
e 62 406
e 62 407
e 62 408
e 62 409
e 62 410
e 62 411
e 62 412
e 62 413
e 62 414
e 62 415
e 62 416
e 62 417
e 62 418
e 62 419
e 62 420
e 62 421
e 62 422
e 62 423
e 62 424
e 62 425
e 62 426
e 62 427
e 62 428
e 62 429
e 62 430
e 62 431
e 62 432
e 62 433
e 62 434
e 62 435
e 62 436
e 62 437
e 62 438
e 62 439
e 62 440
e 62 441
e 62 442
e 62 443
e 62 444
e 62 445
e 62 446
e 62 447
e 62 448
e 62 449
e 62 450
e 62 451
e 62 452
e 62 453
e 62 454
e 62 455
e 62 456
e 62 457
e 62 458
e 62 459
e 62 460
e 62 461
e 62 462
e 62 463
e 62 464
e 62 465
e 62 466
e 62 467
e 62 468
e 62 469
e 62 470
e 62 471
e 62 472
e 62 473
e 62 474
e 62 475
e 62 476
e 62 477
e 62 478
e 62 479
e 62 480
e 62 483
e 62 484
e 62 485
e 62 487
e 62 488
e 62 489
e 62 490
e 62 491
e 62 492
e 62 493
e 62 494
e 62 495
e 62 496
e 62 497
e 62 499
e 62 500
e 62 501
e 62 502
e 62 504
e 62 505
e 62 506
e 62 507
e 62 508
e 62 509
e 62 510
e 62 512
e 62 513
e 62 514
e 62 515
e 62 516
e 62 517
e 62 520
e 62 522
e 62 524
e 62 526
e 62 527
e 62 528
e 62 529
e 62 530
e 62 531
e 62 532
e 62 535
e 62 536
e 62 537
e 62 538
e 62 539
e 62 541
e 62 543
e 62 544
e 62 545
e 62 546
e 62 547
e 62 548
e 62 549
e 62 550
e 62 551
e 62 552
e 62 553
e 62 554
e 62 555
e 62 556
e 62 566
e 62 567
e 62 568
e 62 569
e 62 570
e 62 571
e 62 572
e 62 573
e 62 574
e 62 575
e 62 578
e 62 580
e 62 581
e 62 582
e 62 583
e 62 584
e 62 586
e 62 587
e 62 588
e 62 589
e 62 590
e 62 592
e 62 595
e 62 596
e 62 597
e 62 598
e 62 599
e 62 600
e 62 602
e 62 603
e 62 606
e 62 607
e 62 609
e 62 610
e 62 611
e 62 613
e 62 615
e 62 616
e 62 617
e 62 619
e 62 620
e 62 622
e 62 623
e 62 624
e 62 625
e 62 626
e 62 627
e 62 629
e 62 630
e 62 632
e 62 633
e 62 635
e 62 636
e 62 637
e 62 638
e 62 640
e 62 641
e 62 642
e 62 643
e 62 644
e 62 645
e 62 646
e 62 647
e 62 648
e 62 649
e 62 652
e 62 653
e 62 654
e 62 656
e 62 657
e 62 659
e 62 661
e 62 662
e 62 663
e 62 664
e 62 665
e 62 667
e 62 668
e 62 669
e 62 670
e 62 671
e 62 672
e 62 673
e 62 674
e 62 675
e 62 676
e 62 677
e 62 678
e 62 679
e 62 680
e 62 681
e 62 682
e 62 683
e 62 684
e 62 686
e 62 687
e 62 688
e 62 689
e 62 690
e 62 692
e 62 694
e 62 695
e 62 696
e 62 697
e 62 698
e 62 699
e 62 700
e 62 701
e 62 702
e 62 703
e 62 704
e 62 705
e 62 706
e 62 707
e 62 708
e 62 709
e 62 710
e 62 712
e 62 713
e 62 714
e 62 715
e 62 716
e 62 717
e 62 718
e 62 719
e 62 720
e 62 721
e 62 722
e 62 723
e 62 724
e 62 725
e 62 726
e 62 727
e 62 728
e 62 729
e 62 730
e 62 731
e 62 733
e 62 734
e 62 735
e 62 736
e 62 737
e 62 738
e 62 739
e 62 740
e 62 741
e 62 742
e 62 744
e 62 745
e 62 747
e 62 750
e 62 751
e 62 752
e 62 753
e 62 754
e 62 755
e 62 756
e 62 757
e 62 758
e 62 759
e 62 760
e 62 761
e 62 762
e 62 763
e 62 764
e 62 765
e 62 767
e 62 768
e 62 769
e 62 770
e 62 771
e 62 772
e 62 773
e 62 774
e 62 775
e 62 776
e 62 777
e 62 778
e 62 779
e 62 780
e 62 781
e 62 782
e 62 783
e 62 784
e 62 787
e 62 788
e 62 789
e 62 790
e 62 791
e 62 792
e 62 793
e 62 794
e 62 795
e 62 796
e 62 797
e 62 798
e 62 799
e 62 800
e 62 801
e 62 802
e 62 803
e 62 804
e 62 805
e 62 806
e 62 807
e 62 808
e 62 809
e 62 810
e 62 811
e 62 812
e 62 813
e 62 814
e 62 815
e 62 816
e 62 817
e 62 818
e 62 819
e 62 820
e 62 821
e 62 822
e 62 823
e 62 824
e 62 825
e 62 826
e 62 827
e 62 828
e 62 829
e 62 830
e 62 831
e 62 832
e 62 833
e 62 834
e 62 835
e 62 836
e 62 837
e 62 838
e 62 839
e 62 840
e 62 841
e 62 842
e 62 843
e 62 844
e 62 845
e 62 846
e 62 847
e 62 848
e 62 849
e 62 850
e 62 852
e 62 853
e 62 854
e 62 855
e 63 64
e 63 65
e 63 69
e 63 71
e 63 77
e 63 78
e 63 79
e 63 80
e 63 81
e 63 85
e 63 89
e 63 90
e 63 91
e 63 92
e 63 95
e 63 97
e 63 99
e 63 101
e 63 103
e 63 107
e 63 108
e 63 111
e 63 116
e 63 117
e 63 118
e 63 120
e 63 122
e 63 123
e 63 125
e 63 126
e 63 130
e 63 131
e 63 132
e 63 137
e 63 139
e 63 140
e 63 154
e 63 156
e 63 157
e 63 161
e 63 162
e 63 164
e 63 166
e 63 174
e 63 176
e 63 177
e 63 181
e 63 182
e 63 184
e 63 191
e 63 192
e 63 195
e 63 198
e 63 201
e 63 203
e 63 204
e 63 206
e 63 207
e 63 208
e 63 210
e 63 211
e 63 213
e 63 214
e 63 217
e 63 220
e 63 222
e 63 223
e 63 224
e 63 225
e 63 226
e 63 227
e 63 228
e 63 230
e 63 232
e 63 236
e 63 237
e 63 239
e 63 241
e 63 244
e 63 245
e 63 246
e 63 247
e 63 248
e 63 251
e 63 253
e 63 254
e 63 256
e 63 257
e 63 260
e 63 264
e 63 266
e 63 267
e 63 271
e 63 272
e 63 273
e 63 274
e 63 275
e 63 277
e 63 279
e 63 280
e 63 283
e 63 284
e 63 286
e 63 287
e 63 288
e 63 289
e 63 290
e 63 292
e 63 293
e 63 295
e 63 296
e 63 299
e 63 300
e 63 302
e 63 307
e 63 308
e 63 309
e 63 312
e 63 314
e 63 316
e 63 317
e 63 318
e 63 319
e 63 320
e 63 322
e 63 323
e 63 325
e 63 327
e 63 328
e 63 329
e 63 330
e 63 332
e 63 334
e 63 336
e 63 337
e 63 338
e 63 339
e 63 342
e 63 343
e 63 344
e 63 346
e 63 347
e 63 348
e 63 349
e 63 351
e 63 354
e 63 356
e 63 358
e 63 359
e 63 360
e 63 361
e 63 365
e 63 366
e 63 367
e 63 368
e 63 369
e 63 372
e 63 374
e 63 377
e 63 380
e 63 381
e 63 382
e 63 384
e 63 385
e 63 386
e 63 387
e 63 388
e 63 389
e 63 390
e 63 391
e 63 392
e 63 393
e 63 394
e 63 395
e 63 396
e 63 397
e 63 403
e 63 413
e 63 415
e 63 416
e 63 417
e 63 418
e 63 419
e 63 420
e 63 421
e 63 422
e 63 423
e 63 428
e 63 429
e 63 430
e 63 432
e 63 433
e 63 434
e 63 437
e 63 438
e 63 440
e 63 442
e 63 443
e 63 447
e 63 448
e 63 449
e 63 450
e 63 451
e 63 452
e 63 453
e 63 454
e 63 455
e 63 456
e 63 457
e 63 458
e 63 459
e 63 460
e 63 461
e 63 462
e 63 463
e 63 464
e 63 465
e 63 466
e 63 468
e 63 469
e 63 471
e 63 472
e 63 473
e 63 474
e 63 477
e 63 478
e 63 480
e 63 854
e 64 77
e 64 79
e 64 80
e 64 86
e 64 89
e 64 108
e 64 130
e 64 133
e 64 139
e 64 140
e 64 156
e 64 157
e 64 192
e 64 198
e 64 201
e 64 211
e 64 232
e 64 247
e 64 251
e 64 279
e 64 308
e 64 309
e 64 310
e 64 322
e 64 328
e 64 330
e 64 334
e 64 365
e 64 385
e 64 387
e 64 391
e 64 393
e 64 398
e 64 400
e 64 419
e 64 425
e 64 428
e 64 433
e 65 71
e 65 77
e 65 81
e 65 85
e 65 89
e 65 107
e 65 108
e 65 131
e 65 132
e 65 133
e 65 164
e 65 179
e 65 198
e 65 201
e 65 206
e 65 211
e 65 244
e 65 247
e 65 284
e 65 287
e 65 292
e 65 329
e 65 336
e 65 338
e 65 344
e 65 347
e 65 351
e 65 356
e 65 365
e 65 368
e 65 372
e 65 374
e 65 375
e 65 385
e 65 392
e 65 394
e 65 395
e 65 397
e 65 428
e 65 435
e 65 452
e 65 456
e 65 458
e 65 466
e 66 68
e 66 135
e 66 197
e 66 218
e 66 244
e 66 293
e 66 356
e 66 378
e 66 433
e 66 444
e 67 71
e 67 81
e 67 83
e 67 128
e 67 162
e 67 174
e 67 189
e 67 204
e 67 206
e 67 212
e 67 213
e 67 219
e 67 227
e 67 239
e 67 278
e 67 284
e 67 300
e 67 304
e 67 347
e 67 363
e 67 376
e 67 378
e 67 399
e 67 405
e 67 406
e 67 423
e 67 424
e 67 439
e 68 135
e 68 197
e 68 218
e 68 244
e 68 293
e 68 356
e 68 378
e 68 433
e 68 444
e 69 70
e 69 71
e 69 75
e 69 79
e 69 81
e 69 89
e 69 92
e 69 101
e 69 107
e 69 108
e 69 121
e 69 126
e 69 130
e 69 131
e 69 132
e 69 140
e 69 142
e 69 143
e 69 147
e 69 154
e 69 155
e 69 157
e 69 160
e 69 162
e 69 164
e 69 166
e 69 172
e 69 174
e 69 176
e 69 181
e 69 184
e 69 190
e 69 192
e 69 193
e 69 199
e 69 201
e 69 202
e 69 203
e 69 204
e 69 206
e 69 208
e 69 210
e 69 211
e 69 213
e 69 217
e 69 219
e 69 220
e 69 222
e 69 225
e 69 226
e 69 227
e 69 230
e 69 232
e 69 237
e 69 241
e 69 245
e 69 246
e 69 248
e 69 255
e 69 257
e 69 259
e 69 260
e 69 264
e 69 268
e 69 272
e 69 274
e 69 280
e 69 284
e 69 287
e 69 289
e 69 291
e 69 293
e 69 295
e 69 296
e 69 298
e 69 306
e 69 307
e 69 308
e 69 309
e 69 313
e 69 314
e 69 316
e 69 319
e 69 321
e 69 327
e 69 328
e 69 329
e 69 330
e 69 334
e 69 335
e 69 338
e 69 339
e 69 342
e 69 343
e 69 344
e 69 346
e 69 347
e 69 351
e 69 354
e 69 356
e 69 358
e 69 364
e 69 366
e 69 367
e 69 368
e 69 369
e 69 372
e 69 373
e 69 375
e 69 376
e 69 380
e 69 383
e 69 385
e 69 389
e 69 390
e 69 393
e 69 394
e 69 395
e 69 396
e 69 400
e 69 401
e 69 404
e 69 413
e 69 414
e 69 415
e 69 416
e 69 417
e 69 418
e 69 419
e 69 420
e 69 421
e 69 422
e 69 426
e 69 427
e 69 430
e 69 437
e 69 442
e 69 443
e 69 444
e 69 449
e 69 450
e 69 453
e 69 454
e 69 456
e 69 457
e 69 458
e 69 459
e 69 461
e 69 463
e 69 465
e 69 468
e 69 469
e 69 471
e 69 472
e 69 473
e 69 474
e 69 478
e 69 480
e 69 484
e 69 487
e 69 489
e 69 493
e 69 499
e 69 502
e 69 507
e 69 508
e 69 509
e 69 510
e 69 513
e 69 514
e 69 515
e 69 516
e 69 520
e 69 522
e 69 526
e 69 535
e 69 538
e 69 543
e 69 544
e 69 545
e 69 546
e 69 547
e 69 548
e 69 549
e 69 550
e 69 551
e 69 552
e 69 554
e 69 556
e 69 558
e 69 569
e 69 570
e 69 578
e 69 588
e 69 589
e 69 595
e 69 598
e 69 599
e 69 606
e 69 607
e 69 613
e 69 615
e 69 616
e 69 623
e 69 624
e 69 625
e 69 626
e 69 627
e 69 632
e 69 633
e 69 641
e 69 642
e 69 645
e 69 646
e 69 647
e 69 648
e 69 651
e 69 657
e 69 660
e 69 661
e 69 667
e 69 668
e 69 669
e 69 670
e 69 671
e 69 672
e 69 674
e 69 676
e 69 679
e 69 686
e 69 687
e 69 695
e 69 698
e 69 699
e 69 704
e 69 707
e 69 713
e 69 715
e 69 720
e 69 721
e 69 722
e 69 726
e 69 739
e 69 741
e 69 742
e 69 744
e 69 745
e 69 751
e 69 754
e 69 757
e 69 758
e 69 759
e 69 764
e 69 765
e 69 766
e 69 767
e 69 769
e 69 770
e 69 772
e 69 773
e 69 774
e 69 775
e 69 778
e 69 779
e 69 780
e 69 781
e 69 782
e 69 783
e 69 784
e 69 785
e 69 794
e 69 795
e 69 796
e 69 798
e 69 799
e 69 802
e 69 805
e 69 806
e 69 807
e 69 810
e 69 814
e 69 816
e 69 821
e 69 823
e 69 824
e 69 825
e 69 826
e 69 828
e 69 831
e 69 833
e 69 834
e 69 837
e 69 838
e 69 841
e 69 842
e 69 844
e 69 846
e 69 847
e 69 848
e 69 849
e 69 850
e 69 851
e 69 852
e 69 853
e 69 855
e 70 130
e 70 131
e 70 140
e 70 147
e 70 155
e 70 157
e 70 160
e 70 166
e 70 181
e 70 201
e 70 208
e 70 232
e 70 259
e 70 274
e 70 287
e 70 291
e 70 298
e 70 307
e 70 308
e 70 309
e 70 328
e 70 344
e 70 358
e 70 376
e 70 380
e 70 414
e 70 415
e 70 419
e 70 468
e 70 473
e 71 72
e 71 73
e 71 74
e 71 75
e 71 76
e 71 77
e 71 78
e 71 79
e 71 80
e 71 81
e 71 83
e 71 85
e 71 87
e 71 88
e 71 89
e 71 92
e 71 94
e 71 95
e 71 97
e 71 101
e 71 103
e 71 104
e 71 108
e 71 111
e 71 117
e 71 119
e 71 125
e 71 126
e 71 128
e 71 130
e 71 131
e 71 132
e 71 133
e 71 139
e 71 142
e 71 150
e 71 153
e 71 154
e 71 157
e 71 158
e 71 161
e 71 162
e 71 164
e 71 165
e 71 166
e 71 174
e 71 176
e 71 177
e 71 178
e 71 180
e 71 181
e 71 182
e 71 184
e 71 185
e 71 189
e 71 191
e 71 192
e 71 198
e 71 199
e 71 201
e 71 203
e 71 204
e 71 206
e 71 207
e 71 210
e 71 211
e 71 212
e 71 213
e 71 215
e 71 217
e 71 219
e 71 222
e 71 225
e 71 226
e 71 227
e 71 228
e 71 230
e 71 235
e 71 236
e 71 238
e 71 239
e 71 240
e 71 241
e 71 242
e 71 244
e 71 246
e 71 247
e 71 248
e 71 251
e 71 252
e 71 260
e 71 261
e 71 262
e 71 267
e 71 272
e 71 274
e 71 275
e 71 278
e 71 282
e 71 283
e 71 284
e 71 286
e 71 287
e 71 290
e 71 292
e 71 293
e 71 296
e 71 300
e 71 302
e 71 304
e 71 305
e 71 306
e 71 307
e 71 313
e 71 314
e 71 318
e 71 319
e 71 325
e 71 326
e 71 328
e 71 329
e 71 330
e 71 332
e 71 334
e 71 335
e 71 336
e 71 338
e 71 340
e 71 342
e 71 344
e 71 347
e 71 350
e 71 351
e 71 355
e 71 356
e 71 357
e 71 359
e 71 362
e 71 363
e 71 365
e 71 367
e 71 368
e 71 369
e 71 370
e 71 371
e 71 372
e 71 374
e 71 375
e 71 376
e 71 377
e 71 378
e 71 380
e 71 381
e 71 382
e 71 383
e 71 385
e 71 387
e 71 388
e 71 389
e 71 390
e 71 391
e 71 392
e 71 393
e 71 394
e 71 395
e 71 396
e 71 397
e 71 398
e 71 399
e 71 400
e 71 403
e 71 405
e 71 406
e 71 412
e 71 413
e 71 416
e 71 417
e 71 420
e 71 421
e 71 423
e 71 424
e 71 426
e 71 428
e 71 429
e 71 431
e 71 433
e 71 434
e 71 435
e 71 437
e 71 439
e 71 444
e 71 447
e 71 448
e 71 450
e 71 451
e 71 452
e 71 453
e 71 454
e 71 455
e 71 456
e 71 457
e 71 460
e 71 462
e 71 466
e 71 467
e 71 468
e 71 469
e 71 472
e 71 473
e 71 477
e 71 479
e 71 480
e 71 854
e 72 73
e 72 74
e 72 75
e 72 76
e 72 77
e 72 80
e 72 101
e 72 108
e 72 131
e 72 162
e 72 165
e 72 176
e 72 177
e 72 178
e 72 203
e 72 204
e 72 213
e 72 215
e 72 235
e 72 238
e 72 241
e 72 244
e 72 262
e 72 290
e 72 305
e 72 306
e 72 307
e 72 319
e 72 347
e 72 356
e 72 420
e 72 424
e 72 439
e 73 74
e 73 75
e 73 76
e 73 77
e 73 80
e 73 101
e 73 108
e 73 131
e 73 162
e 73 165
e 73 176
e 73 177
e 73 178
e 73 203
e 73 204
e 73 213
e 73 215
e 73 235
e 73 238
e 73 241
e 73 244
e 73 262
e 73 290
e 73 305
e 73 306
e 73 307
e 73 319
e 73 347
e 73 356
e 73 420
e 73 424
e 73 439
e 74 75
e 74 76
e 74 77
e 74 80
e 74 101
e 74 108
e 74 131
e 74 162
e 74 165
e 74 176
e 74 177
e 74 178
e 74 203
e 74 204
e 74 213
e 74 215
e 74 235
e 74 238
e 74 241
e 74 244
e 74 262
e 74 290
e 74 305
e 74 306
e 74 307
e 74 319
e 74 347
e 74 356
e 74 420
e 74 424
e 74 439
e 75 76
e 75 77
e 75 78
e 75 80
e 75 89
e 75 101
e 75 107
e 75 108
e 75 121
e 75 131
e 75 142
e 75 143
e 75 161
e 75 162
e 75 165
e 75 174
e 75 175
e 75 176
e 75 177
e 75 178
e 75 190
e 75 192
e 75 202
e 75 203
e 75 204
e 75 206
e 75 211
e 75 213
e 75 215
e 75 220
e 75 223
e 75 225
e 75 235
e 75 238
e 75 241
e 75 244
e 75 246
e 75 257
e 75 260
e 75 261
e 75 262
e 75 264
e 75 265
e 75 273
e 75 274
e 75 278
e 75 280
e 75 287
e 75 290
e 75 293
e 75 305
e 75 306
e 75 307
e 75 316
e 75 319
e 75 321
e 75 338
e 75 346
e 75 347
e 75 354
e 75 356
e 75 364
e 75 372
e 75 383
e 75 393
e 75 394
e 75 396
e 75 400
e 75 417
e 75 420
e 75 424
e 75 426
e 75 437
e 75 439
e 75 443
e 75 444
e 75 447
e 75 448
e 75 452
e 75 453
e 75 457
e 75 459
e 75 468
e 75 470
e 75 471
e 75 478
e 75 483
e 75 484
e 75 485
e 75 487
e 75 488
e 75 489
e 75 497
e 75 502
e 75 504
e 75 505
e 75 507
e 75 508
e 75 509
e 75 510
e 75 513
e 75 515
e 75 516
e 75 520
e 75 522
e 75 526
e 75 529
e 75 531
e 75 535
e 75 538
e 75 543
e 75 548
e 75 549
e 75 550
e 75 551
e 75 552
e 75 554
e 75 555
e 75 556
e 75 567
e 75 568
e 75 569
e 75 570
e 75 571
e 75 572
e 75 573
e 75 574
e 75 575
e 75 578
e 75 586
e 75 588
e 75 589
e 75 595
e 75 596
e 75 601
e 75 606
e 75 607
e 75 613
e 75 615
e 75 616
e 75 620
e 75 623
e 75 625
e 75 627
e 75 628
e 75 629
e 75 630
e 75 632
e 75 639
e 75 640
e 75 641
e 75 642
e 75 643
e 75 647
e 75 654
e 75 655
e 75 656
e 75 657
e 75 658
e 75 659
e 75 664
e 75 668
e 75 670
e 75 671
e 75 672
e 75 675
e 75 676
e 75 677
e 75 679
e 75 680
e 75 686
e 75 687
e 75 688
e 75 691
e 75 695
e 75 701
e 75 704
e 75 707
e 75 709
e 75 710
e 75 714
e 75 715
e 75 717
e 75 718
e 75 719
e 75 720
e 75 721
e 75 723
e 75 724
e 75 725
e 75 728
e 75 729
e 75 730
e 75 732
e 75 735
e 75 739
e 75 740
e 75 741
e 75 742
e 75 744
e 75 745
e 75 746
e 75 748
e 75 749
e 75 751
e 75 752
e 75 753
e 75 756
e 75 757
e 75 759
e 75 760
e 75 762
e 75 763
e 75 764
e 75 769
e 75 770
e 75 772
e 75 773
e 75 774
e 75 776
e 75 777
e 75 779
e 75 780
e 75 781
e 75 782
e 75 784
e 75 785
e 75 786
e 75 787
e 75 789
e 75 794
e 75 796
e 75 798
e 75 799
e 75 803
e 75 804
e 75 806
e 75 807
e 75 809
e 75 812
e 75 814
e 75 817
e 75 819
e 75 820
e 75 822
e 75 825
e 75 826
e 75 827
e 75 831
e 75 832
e 75 833
e 75 835
e 75 836
e 75 840
e 75 844
e 75 845
e 75 846
e 75 848
e 75 849
e 75 850
e 75 851
e 75 852
e 75 853
e 75 855
e 76 77
e 76 80
e 76 101
e 76 108
e 76 131
e 76 162
e 76 165
e 76 176
e 76 177
e 76 178
e 76 203
e 76 204
e 76 213
e 76 215
e 76 235
e 76 238
e 76 241
e 76 244
e 76 262
e 76 290
e 76 305
e 76 306
e 76 307
e 76 319
e 76 347
e 76 356
e 76 420
e 76 424
e 76 439
e 77 80
e 77 81
e 77 85
e 77 88
e 77 89
e 77 95
e 77 101
e 77 107
e 77 108
e 77 111
e 77 119
e 77 125
e 77 127
e 77 128
e 77 130
e 77 131
e 77 132
e 77 133
e 77 139
e 77 140
e 77 142
e 77 148
e 77 150
e 77 153
e 77 156
e 77 157
e 77 158
e 77 160
e 77 162
e 77 164
e 77 165
e 77 166
e 77 174
e 77 176
e 77 177
e 77 178
e 77 180
e 77 181
e 77 187
e 77 189
e 77 192
e 77 199
e 77 201
e 77 202
e 77 203
e 77 204
e 77 205
e 77 206
e 77 207
e 77 211
e 77 212
e 77 213
e 77 215
e 77 217
e 77 219
e 77 222
e 77 226
e 77 227
e 77 228
e 77 232
e 77 235
e 77 236
e 77 238
e 77 239
e 77 240
e 77 241
e 77 244
e 77 246
e 77 247
e 77 248
e 77 251
e 77 252
e 77 254
e 77 255
e 77 257
e 77 258
e 77 260
e 77 261
e 77 262
e 77 274
e 77 278
e 77 279
e 77 282
e 77 284
e 77 287
e 77 290
e 77 292
e 77 293
e 77 296
e 77 297
e 77 300
e 77 302
e 77 305
e 77 306
e 77 307
e 77 308
e 77 309
e 77 313
e 77 314
e 77 319
e 77 325
e 77 326
e 77 328
e 77 329
e 77 330
e 77 332
e 77 334
e 77 335
e 77 336
e 77 338
e 77 342
e 77 344
e 77 346
e 77 347
e 77 351
e 77 352
e 77 355
e 77 356
e 77 357
e 77 359
e 77 365
e 77 367
e 77 368
e 77 369
e 77 370
e 77 372
e 77 373
e 77 374
e 77 376
e 77 378
e 77 380
e 77 383
e 77 384
e 77 385
e 77 387
e 77 388
e 77 389
e 77 390
e 77 391
e 77 392
e 77 393
e 77 394
e 77 395
e 77 398
e 77 399
e 77 400
e 77 404
e 77 406
e 77 412
e 77 416
e 77 417
e 77 419
e 77 420
e 77 423
e 77 424
e 77 426
e 77 428
e 77 431
e 77 433
e 77 434
e 77 435
e 77 436
e 77 437
e 77 439
e 77 444
e 77 447
e 77 452
e 77 454
e 77 455
e 77 457
e 77 462
e 77 466
e 77 467
e 77 469
e 77 470
e 77 472
e 77 474
e 77 476
e 77 477
e 77 478
e 77 479
e 77 480
e 78 79
e 78 80
e 78 89
e 78 92
e 78 95
e 78 97
e 78 101
e 78 103
e 78 107
e 78 108
e 78 111
e 78 117
e 78 120
e 78 121
e 78 124
e 78 125
e 78 130
e 78 131
e 78 132
e 78 134
e 78 136
e 78 139
e 78 140
e 78 143
e 78 147
e 78 153
e 78 154
e 78 155
e 78 156
e 78 160
e 78 161
e 78 162
e 78 164
e 78 166
e 78 174
e 78 179
e 78 181
e 78 182
e 78 191
e 78 192
e 78 194
e 78 198
e 78 199
e 78 203
e 78 204
e 78 206
e 78 208
e 78 209
e 78 210
e 78 211
e 78 213
e 78 217
e 78 220
e 78 222
e 78 223
e 78 225
e 78 227
e 78 228
e 78 229
e 78 230
e 78 232
e 78 235
e 78 236
e 78 237
e 78 239
e 78 241
e 78 244
e 78 245
e 78 246
e 78 247
e 78 248
e 78 251
e 78 252
e 78 257
e 78 260
e 78 262
e 78 263
e 78 264
e 78 267
e 78 272
e 78 273
e 78 274
e 78 275
e 78 276
e 78 278
e 78 280
e 78 281
e 78 282
e 78 283
e 78 284
e 78 285
e 78 286
e 78 287
e 78 289
e 78 290
e 78 291
e 78 293
e 78 296
e 78 298
e 78 299
e 78 300
e 78 301
e 78 308
e 78 309
e 78 310
e 78 313
e 78 314
e 78 316
e 78 317
e 78 318
e 78 319
e 78 325
e 78 326
e 78 328
e 78 329
e 78 330
e 78 334
e 78 335
e 78 336
e 78 338
e 78 339
e 78 342
e 78 344
e 78 345
e 78 346
e 78 348
e 78 349
e 78 351
e 78 353
e 78 354
e 78 356
e 78 358
e 78 359
e 78 366
e 78 368
e 78 369
e 78 370
e 78 371
e 78 372
e 78 374
e 78 377
e 78 379
e 78 380
e 78 382
e 78 386
e 78 388
e 78 389
e 78 390
e 78 392
e 78 393
e 78 394
e 78 395
e 78 396
e 78 400
e 78 402
e 78 405
e 78 408
e 78 409
e 78 410
e 78 411
e 78 414
e 78 415
e 78 417
e 78 418
e 78 419
e 78 420
e 78 421
e 78 422
e 78 423
e 78 424
e 78 428
e 78 429
e 78 432
e 78 433
e 78 435
e 78 436
e 78 437
e 78 438
e 78 440
e 78 443
e 78 445
e 78 446
e 78 447
e 78 448
e 78 449
e 78 450
e 78 451
e 78 452
e 78 453
e 78 455
e 78 456
e 78 457
e 78 459
e 78 462
e 78 463
e 78 464
e 78 465
e 78 466
e 78 468
e 78 469
e 78 470
e 78 472
e 78 474
e 78 475
e 78 476
e 78 477
e 78 478
e 78 480
e 78 484
e 78 489
e 78 495
e 78 502
e 78 505
e 78 507
e 78 515
e 78 516
e 78 520
e 78 529
e 78 533
e 78 535
e 78 550
e 78 551
e 78 552
e 78 569
e 78 570
e 78 578
e 78 586
e 78 588
e 78 610
e 78 613
e 78 616
e 78 627
e 78 641
e 78 642
e 78 643
e 78 647
e 78 654
e 78 659
e 78 664
e 78 666
e 78 677
e 78 679
e 78 687
e 78 688
e 78 703
e 78 707
e 78 709
e 78 710
e 78 716
e 78 717
e 78 719
e 78 728
e 78 738
e 78 739
e 78 740
e 78 741
e 78 742
e 78 744
e 78 753
e 78 756
e 78 757
e 78 776
e 78 777
e 78 796
e 78 799
e 78 801
e 78 807
e 78 809
e 78 817
e 78 826
e 78 835
e 78 843
e 78 854
e 79 80
e 79 81
e 79 82
e 79 86
e 79 88
e 79 89
e 79 92
e 79 94
e 79 95
e 79 97
e 79 98
e 79 99
e 79 101
e 79 102
e 79 103
e 79 107
e 79 108
e 79 109
e 79 116
e 79 117
e 79 118
e 79 120
e 79 121
e 79 125
e 79 126
e 79 128
e 79 130
e 79 131
e 79 132
e 79 133
e 79 135
e 79 139
e 79 140
e 79 143
e 79 144
e 79 149
e 79 152
e 79 153
e 79 154
e 79 156
e 79 157
e 79 161
e 79 162
e 79 164
e 79 165
e 79 166
e 79 173
e 79 174
e 79 176
e 79 177
e 79 181
e 79 182
e 79 183
e 79 184
e 79 186
e 79 189
e 79 191
e 79 192
e 79 195
e 79 198
e 79 199
e 79 200
e 79 202
e 79 203
e 79 204
e 79 206
e 79 207
e 79 208
e 79 211
e 79 213
e 79 215
e 79 217
e 79 220
e 79 222
e 79 223
e 79 224
e 79 225
e 79 227
e 79 228
e 79 230
e 79 231
e 79 234
e 79 235
e 79 236
e 79 241
e 79 242
e 79 244
e 79 246
e 79 247
e 79 248
e 79 249
e 79 250
e 79 251
e 79 255
e 79 257
e 79 260
e 79 262
e 79 263
e 79 264
e 79 265
e 79 269
e 79 271
e 79 272
e 79 274
e 79 276
e 79 277
e 79 280
e 79 282
e 79 283
e 79 284
e 79 286
e 79 287
e 79 288
e 79 289
e 79 290
e 79 292
e 79 293
e 79 294
e 79 295
e 79 296
e 79 300
e 79 302
e 79 303
e 79 306
e 79 307
e 79 308
e 79 309
e 79 310
e 79 311
e 79 312
e 79 313
e 79 314
e 79 316
e 79 319
e 79 322
e 79 323
e 79 327
e 79 328
e 79 329
e 79 330
e 79 331
e 79 332
e 79 334
e 79 335
e 79 338
e 79 339
e 79 342
e 79 344
e 79 345
e 79 346
e 79 347
e 79 348
e 79 349
e 79 350
e 79 354
e 79 355
e 79 356
e 79 358
e 79 359
e 79 360
e 79 361
e 79 367
e 79 368
e 79 372
e 79 377
e 79 379
e 79 380
e 79 381
e 79 384
e 79 386
e 79 387
e 79 388
e 79 389
e 79 390
e 79 391
e 79 393
e 79 394
e 79 395
e 79 396
e 79 398
e 79 400
e 79 403
e 79 407
e 79 416
e 79 417
e 79 418
e 79 419
e 79 420
e 79 421
e 79 422
e 79 424
e 79 425
e 79 429
e 79 430
e 79 431
e 79 432
e 79 434
e 79 436
e 79 437
e 79 439
e 79 440
e 79 441
e 79 443
e 79 448
e 79 449
e 79 451
e 79 453
e 79 455
e 79 456
e 79 457
e 79 459
e 79 460
e 79 461
e 79 462
e 79 463
e 79 464
e 79 465
e 79 466
e 79 468
e 79 469
e 79 471
e 79 472
e 79 473
e 79 474
e 79 478
e 79 480
e 79 483
e 79 493
e 79 501
e 79 509
e 79 510
e 79 515
e 79 529
e 79 538
e 79 548
e 79 569
e 79 570
e 79 583
e 79 584
e 79 589
e 79 600
e 79 613
e 79 623
e 79 638
e 79 642
e 79 647
e 79 651
e 79 652
e 79 657
e 79 667
e 79 668
e 79 672
e 79 676
e 79 681
e 79 682
e 79 683
e 79 684
e 79 689
e 79 695
e 79 703
e 79 704
e 79 707
e 79 711
e 79 732
e 79 733
e 79 741
e 79 742
e 79 747
e 79 748
e 79 752
e 79 766
e 79 767
e 79 779
e 79 796
e 79 799
e 79 803
e 79 806
e 79 808
e 79 810
e 79 811
e 79 816
e 79 818
e 79 821
e 79 823
e 79 828
e 79 834
e 79 840
e 79 842
e 79 843
e 79 851
e 79 852
e 79 854
e 79 855
e 80 81
e 80 83
e 80 85
e 80 86
e 80 87
e 80 89
e 80 90
e 80 91
e 80 92
e 80 93
e 80 94
e 80 95
e 80 96
e 80 97
e 80 99
e 80 100
e 80 101
e 80 103
e 80 107
e 80 108
e 80 111
e 80 115
e 80 117
e 80 120
e 80 121
e 80 122
e 80 123
e 80 125
e 80 128
e 80 130
e 80 131
e 80 133
e 80 139
e 80 140
e 80 146
e 80 150
e 80 153
e 80 156
e 80 157
e 80 162
e 80 164
e 80 165
e 80 174
e 80 176
e 80 177
e 80 178
e 80 179
e 80 180
e 80 181
e 80 182
e 80 185
e 80 186
e 80 188
e 80 189
e 80 192
e 80 195
e 80 196
e 80 198
e 80 199
e 80 201
e 80 203
e 80 204
e 80 206
e 80 207
e 80 210
e 80 211
e 80 212
e 80 213
e 80 214
e 80 215
e 80 217
e 80 218
e 80 219
e 80 222
e 80 223
e 80 225
e 80 226
e 80 227
e 80 230
e 80 232
e 80 234
e 80 235
e 80 236
e 80 238
e 80 239
e 80 240
e 80 241
e 80 242
e 80 244
e 80 245
e 80 246
e 80 247
e 80 251
e 80 252
e 80 260
e 80 262
e 80 263
e 80 264
e 80 265
e 80 267
e 80 269
e 80 271
e 80 272
e 80 273
e 80 274
e 80 277
e 80 278
e 80 279
e 80 280
e 80 282
e 80 283
e 80 284
e 80 285
e 80 286
e 80 287
e 80 289
e 80 290
e 80 291
e 80 292
e 80 293
e 80 294
e 80 300
e 80 301
e 80 304
e 80 305
e 80 306
e 80 307
e 80 308
e 80 309
e 80 310
e 80 314
e 80 315
e 80 316
e 80 317
e 80 318
e 80 319
e 80 320
e 80 322
e 80 326
e 80 328
e 80 329
e 80 330
e 80 331
e 80 333
e 80 334
e 80 336
e 80 337
e 80 338
e 80 339
e 80 340
e 80 341
e 80 344
e 80 345
e 80 346
e 80 347
e 80 348
e 80 349
e 80 350
e 80 351
e 80 353
e 80 355
e 80 356
e 80 357
e 80 358
e 80 359
e 80 363
e 80 365
e 80 366
e 80 367
e 80 368
e 80 372
e 80 374
e 80 375
e 80 376
e 80 377
e 80 378
e 80 380
e 80 381
e 80 382
e 80 383
e 80 385
e 80 386
e 80 387
e 80 388
e 80 389
e 80 390
e 80 391
e 80 392
e 80 393
e 80 394
e 80 395
e 80 398
e 80 399
e 80 400
e 80 402
e 80 405
e 80 406
e 80 408
e 80 412
e 80 416
e 80 417
e 80 418
e 80 419
e 80 420
e 80 421
e 80 422
e 80 423
e 80 424
e 80 425
e 80 426
e 80 428
e 80 429
e 80 431
e 80 432
e 80 433
e 80 439
e 80 440
e 80 441
e 80 443
e 80 444
e 80 448
e 80 452
e 80 453
e 80 456
e 80 457
e 80 461
e 80 462
e 80 464
e 80 466
e 80 467
e 80 469
e 80 475
e 80 476
e 80 477
e 80 479
e 80 480
e 81 83
e 81 85
e 81 87
e 81 89
e 81 92
e 81 95
e 81 96
e 81 98
e 81 99
e 81 100
e 81 101
e 81 107
e 81 108
e 81 115
e 81 117
e 81 125
e 81 128
e 81 130
e 81 131
e 81 132
e 81 133
e 81 139
e 81 143
e 81 144
e 81 148
e 81 153
e 81 154
e 81 157
e 81 158
e 81 161
e 81 162
e 81 164
e 81 165
e 81 166
e 81 174
e 81 176
e 81 177
e 81 178
e 81 181
e 81 182
e 81 184
e 81 185
e 81 186
e 81 187
e 81 188
e 81 189
e 81 192
e 81 199
e 81 201
e 81 202
e 81 203
e 81 204
e 81 205
e 81 206
e 81 207
e 81 210
e 81 211
e 81 212
e 81 213
e 81 215
e 81 217
e 81 219
e 81 222
e 81 225
e 81 226
e 81 227
e 81 228
e 81 230
e 81 236
e 81 238
e 81 239
e 81 240
e 81 241
e 81 242
e 81 244
e 81 245
e 81 246
e 81 247
e 81 248
e 81 251
e 81 260
e 81 262
e 81 264
e 81 265
e 81 269
e 81 272
e 81 274
e 81 278
e 81 280
e 81 284
e 81 286
e 81 287
e 81 290
e 81 292
e 81 293
e 81 295
e 81 296
e 81 297
e 81 300
e 81 301
e 81 302
e 81 304
e 81 305
e 81 306
e 81 311
e 81 313
e 81 314
e 81 315
e 81 317
e 81 318
e 81 319
e 81 325
e 81 326
e 81 329
e 81 330
e 81 332
e 81 334
e 81 335
e 81 336
e 81 338
e 81 339
e 81 340
e 81 344
e 81 346
e 81 347
e 81 349
e 81 351
e 81 352
e 81 355
e 81 356
e 81 363
e 81 365
e 81 366
e 81 367
e 81 368
e 81 372
e 81 374
e 81 375
e 81 376
e 81 377
e 81 378
e 81 379
e 81 380
e 81 382
e 81 383
e 81 384
e 81 385
e 81 387
e 81 388
e 81 389
e 81 390
e 81 391
e 81 392
e 81 394
e 81 395
e 81 396
e 81 398
e 81 399
e 81 405
e 81 406
e 81 416
e 81 417
e 81 420
e 81 421
e 81 423
e 81 424
e 81 426
e 81 428
e 81 429
e 81 431
e 81 432
e 81 433
e 81 434
e 81 435
e 81 436
e 81 439
e 81 441
e 81 444
e 81 447
e 81 448
e 81 451
e 81 452
e 81 453
e 81 454
e 81 455
e 81 456
e 81 457
e 81 459
e 81 460
e 81 461
e 81 462
e 81 464
e 81 465
e 81 466
e 81 470
e 81 471
e 81 472
e 81 473
e 81 474
e 81 475
e 81 476
e 81 477
e 81 478
e 81 479
e 81 480
e 81 854
e 82 89
e 82 101
e 82 117
e 82 128
e 82 130
e 82 157
e 82 166
e 82 183
e 82 200
e 82 211
e 82 217
e 82 220
e 82 224
e 82 231
e 82 251
e 82 260
e 82 262
e 82 263
e 82 264
e 82 290
e 82 292
e 82 294
e 82 296
e 82 300
e 82 302
e 82 303
e 82 327
e 82 330
e 82 331
e 82 355
e 82 368
e 82 429
e 82 431
e 83 101
e 83 108
e 83 117
e 83 128
e 83 162
e 83 174
e 83 189
e 83 204
e 83 206
e 83 210
e 83 212
e 83 213
e 83 219
e 83 225
e 83 227
e 83 239
e 83 240
e 83 241
e 83 242
e 83 244
e 83 278
e 83 284
e 83 287
e 83 292
e 83 293
e 83 300
e 83 304
e 83 305
e 83 340
e 83 347
e 83 356
e 83 363
e 83 372
e 83 375
e 83 376
e 83 378
e 83 399
e 83 405
e 83 406
e 83 423
e 83 424
e 83 439
e 83 444
e 84 140
e 84 176
e 84 208
e 84 323
e 84 361
e 84 388
e 84 459
e 84 464
e 84 465
e 85 86
e 85 89
e 85 108
e 85 111
e 85 131
e 85 132
e 85 164
e 85 179
e 85 192
e 85 196
e 85 201
e 85 206
e 85 211
e 85 222
e 85 225
e 85 232
e 85 244
e 85 247
e 85 272
e 85 279
e 85 284
e 85 287
e 85 292
e 85 310
e 85 322
e 85 329
e 85 334
e 85 336
e 85 338
e 85 344
e 85 347
e 85 351
e 85 356
e 85 365
e 85 368
e 85 372
e 85 374
e 85 375
e 85 385
e 85 392
e 85 394
e 85 395
e 85 398
e 85 400
e 85 425
e 85 428
e 85 433
e 85 456
e 85 466
e 85 477
e 86 89
e 86 111
e 86 130
e 86 133
e 86 139
e 86 140
e 86 156
e 86 157
e 86 164
e 86 179
e 86 192
e 86 196
e 86 198
e 86 211
e 86 222
e 86 225
e 86 232
e 86 251
e 86 272
e 86 279
e 86 287
e 86 292
e 86 308
e 86 309
e 86 310
e 86 322
e 86 330
e 86 334
e 86 336
e 86 344
e 86 347
e 86 351
e 86 368
e 86 372
e 86 374
e 86 375
e 86 391
e 86 393
e 86 398
e 86 400
e 86 419
e 86 425
e 86 433
e 86 456
e 86 477
e 87 101
e 87 108
e 87 117
e 87 165
e 87 174
e 87 182
e 87 189
e 87 204
e 87 210
e 87 212
e 87 217
e 87 225
e 87 227
e 87 238
e 87 242
e 87 244
e 87 246
e 87 287
e 87 300
e 87 304
e 87 347
e 87 356
e 87 372
e 87 376
e 87 378
e 87 380
e 87 406
e 87 424
e 87 429
e 87 444
e 87 453
e 88 101
e 88 108
e 88 109
e 88 132
e 88 139
e 88 157
e 88 173
e 88 174
e 88 195
e 88 212
e 88 213
e 88 215
e 88 222
e 88 239
e 88 241
e 88 244
e 88 249
e 88 250
e 88 251
e 88 260
e 88 262
e 88 282
e 88 284
e 88 287
e 88 306
e 88 314
e 88 326
e 88 330
e 88 347
e 88 356
e 88 386
e 88 400
e 88 407
e 88 412
e 88 426
e 88 437
e 88 462
e 88 467
e 88 469
e 88 471
e 88 472
e 88 473
e 88 480
e 88 854
e 89 92
e 89 94
e 89 95
e 89 97
e 89 101
e 89 103
e 89 104
e 89 105
e 89 106
e 89 107
e 89 108
e 89 111
e 89 117
e 89 121
e 89 125
e 89 126
e 89 128
e 89 130
e 89 131
e 89 132
e 89 133
e 89 139
e 89 140
e 89 141
e 89 142
e 89 143
e 89 144
e 89 149
e 89 152
e 89 153
e 89 156
e 89 157
e 89 158
e 89 161
e 89 164
e 89 165
e 89 166
e 89 172
e 89 175
e 89 176
e 89 177
e 89 179
e 89 180
e 89 181
e 89 183
e 89 186
e 89 192
e 89 196
e 89 197
e 89 198
e 89 199
e 89 200
e 89 201
e 89 202
e 89 203
e 89 204
e 89 206
e 89 208
e 89 211
e 89 213
e 89 216
e 89 217
e 89 219
e 89 220
e 89 222
e 89 223
e 89 224
e 89 225
e 89 227
e 89 228
e 89 230
e 89 231
e 89 232
e 89 234
e 89 235
e 89 236
e 89 241
e 89 244
e 89 246
e 89 247
e 89 248
e 89 251
e 89 252
e 89 257
e 89 260
e 89 261
e 89 262
e 89 263
e 89 264
e 89 272
e 89 273
e 89 274
e 89 278
e 89 279
e 89 280
e 89 283
e 89 284
e 89 287
e 89 290
e 89 292
e 89 293
e 89 294
e 89 296
e 89 300
e 89 302
e 89 303
e 89 307
e 89 308
e 89 309
e 89 310
e 89 311
e 89 313
e 89 314
e 89 316
e 89 319
e 89 322
e 89 325
e 89 327
e 89 328
e 89 329
e 89 330
e 89 331
e 89 332
e 89 334
e 89 335
e 89 336
e 89 338
e 89 342
e 89 344
e 89 345
e 89 346
e 89 347
e 89 350
e 89 351
e 89 355
e 89 356
e 89 358
e 89 359
e 89 362
e 89 363
e 89 365
e 89 367
e 89 368
e 89 369
e 89 370
e 89 371
e 89 372
e 89 374
e 89 375
e 89 376
e 89 377
e 89 379
e 89 380
e 89 381
e 89 383
e 89 384
e 89 385
e 89 387
e 89 388
e 89 389
e 89 390
e 89 391
e 89 392
e 89 393
e 89 394
e 89 395
e 89 396
e 89 397
e 89 398
e 89 399
e 89 400
e 89 401
e 89 403
e 89 415
e 89 416
e 89 417
e 89 419
e 89 420
e 89 424
e 89 425
e 89 426
e 89 427
e 89 428
e 89 429
e 89 431
e 89 433
e 89 434
e 89 435
e 89 437
e 89 438
e 89 440
e 89 441
e 89 443
e 89 447
e 89 448
e 89 451
e 89 452
e 89 453
e 89 454
e 89 455
e 89 456
e 89 457
e 89 458
e 89 459
e 89 460
e 89 461
e 89 462
e 89 463
e 89 464
e 89 465
e 89 466
e 89 470
e 89 471
e 89 472
e 89 473
e 89 474
e 89 477
e 89 478
e 89 480
e 89 484
e 89 487
e 89 489
e 89 495
e 89 496
e 89 499
e 89 501
e 89 502
e 89 504
e 89 505
e 89 507
e 89 508
e 89 514
e 89 515
e 89 516
e 89 520
e 89 521
e 89 522
e 89 523
e 89 531
e 89 533
e 89 535
e 89 536
e 89 537
e 89 538
e 89 539
e 89 543
e 89 548
e 89 549
e 89 550
e 89 551
e 89 552
e 89 554
e 89 555
e 89 566
e 89 567
e 89 568
e 89 569
e 89 570
e 89 578
e 89 586
e 89 588
e 89 595
e 89 596
e 89 597
e 89 609
e 89 611
e 89 615
e 89 616
e 89 623
e 89 624
e 89 625
e 89 626
e 89 627
e 89 631
e 89 639
e 89 640
e 89 641
e 89 642
e 89 643
e 89 644
e 89 647
e 89 653
e 89 654
e 89 657
e 89 659
e 89 661
e 89 664
e 89 666
e 89 667
e 89 668
e 89 677
e 89 679
e 89 680
e 89 686
e 89 687
e 89 688
e 89 695
e 89 697
e 89 699
e 89 701
e 89 703
e 89 704
e 89 707
e 89 709
e 89 710
e 89 717
e 89 719
e 89 723
e 89 724
e 89 725
e 89 727
e 89 728
e 89 735
e 89 737
e 89 738
e 89 739
e 89 740
e 89 741
e 89 742
e 89 744
e 89 745
e 89 746
e 89 751
e 89 753
e 89 756
e 89 757
e 89 761
e 89 762
e 89 764
e 89 766
e 89 767
e 89 768
e 89 769
e 89 772
e 89 773
e 89 774
e 89 776
e 89 777
e 89 778
e 89 779
e 89 782
e 89 783
e 89 784
e 89 787
e 89 794
e 89 796
e 89 798
e 89 799
e 89 800
e 89 804
e 89 806
e 89 807
e 89 809
e 89 812
e 89 813
e 89 814
e 89 817
e 89 821
e 89 823
e 89 824
e 89 825
e 89 826
e 89 827
e 89 828
e 89 829
e 89 830
e 89 831
e 89 832
e 89 834
e 89 835
e 89 836
e 89 843
e 89 847
e 89 848
e 89 850
e 89 854
e 90 91
e 90 107
e 90 131
e 90 139
e 90 195
e 90 213
e 90 214
e 90 239
e 90 300
e 90 320
e 90 395
e 90 440
e 91 107
e 91 131
e 91 139
e 91 195
e 91 213
e 91 214
e 91 239
e 91 300
e 91 320
e 91 395
e 91 440
e 92 93
e 92 94
e 92 96
e 92 97
e 92 98
e 92 99
e 92 100
e 92 101
e 92 103
e 92 107
e 92 108
e 92 117
e 92 125
e 92 131
e 92 132
e 92 139
e 92 153
e 92 154
e 92 157
e 92 161
e 92 162
e 92 166
e 92 174
e 92 176
e 92 181
e 92 182
e 92 184
e 92 186
e 92 188
e 92 189
e 92 192
e 92 199
e 92 201
e 92 203
e 92 204
e 92 206
e 92 208
e 92 209
e 92 210
e 92 211
e 92 213
e 92 215
e 92 217
e 92 219
e 92 223
e 92 225
e 92 227
e 92 228
e 92 229
e 92 230
e 92 234
e 92 235
e 92 236
e 92 237
e 92 239
e 92 242
e 92 244
e 92 246
e 92 248
e 92 251
e 92 260
e 92 261
e 92 262
e 92 263
e 92 264
e 92 265
e 92 269
e 92 271
e 92 272
e 92 274
e 92 276
e 92 277
e 92 280
e 92 284
e 92 287
e 92 289
e 92 290
e 92 293
e 92 294
e 92 296
e 92 297
e 92 299
e 92 300
e 92 304
e 92 307
e 92 314
e 92 316
e 92 317
e 92 318
e 92 319
e 92 328
e 92 329
e 92 330
e 92 334
e 92 335
e 92 339
e 92 342
e 92 345
e 92 347
e 92 348
e 92 349
e 92 350
e 92 352
e 92 354
e 92 356
e 92 358
e 92 366
e 92 367
e 92 368
e 92 369
e 92 370
e 92 372
e 92 380
e 92 387
e 92 389
e 92 390
e 92 393
e 92 395
e 92 400
e 92 409
e 92 410
e 92 411
e 92 415
e 92 416
e 92 417
e 92 420
e 92 421
e 92 422
e 92 424
e 92 428
e 92 429
e 92 430
e 92 432
e 92 437
e 92 438
e 92 440
e 92 441
e 92 443
e 92 445
e 92 446
e 92 447
e 92 448
e 92 449
e 92 451
e 92 453
e 92 455
e 92 456
e 92 457
e 92 461
e 92 463
e 92 468
e 92 470
e 92 472
e 92 473
e 92 474
e 92 854
e 93 94
e 93 96
e 93 97
e 93 99
e 93 100
e 93 108
e 93 139
e 93 186
e 93 188
e 93 199
e 93 210
e 93 227
e 93 234
e 93 246
e 93 263
e 93 280
e 93 286
e 93 294
e 93 304
e 93 329
e 93 366
e 93 387
e 93 417
e 93 441
e 94 96
e 94 97
e 94 99
e 94 100
e 94 101
e 94 103
e 94 108
e 94 121
e 94 126
e 94 139
e 94 153
e 94 157
e 94 159
e 94 160
e 94 161
e 94 162
e 94 163
e 94 164
e 94 166
e 94 168
e 94 169
e 94 172
e 94 174
e 94 175
e 94 176
e 94 180
e 94 181
e 94 182
e 94 186
e 94 188
e 94 199
e 94 206
e 94 210
e 94 211
e 94 213
e 94 223
e 94 225
e 94 227
e 94 234
e 94 246
e 94 248
e 94 260
e 94 261
e 94 262
e 94 263
e 94 265
e 94 269
e 94 280
e 94 283
e 94 286
e 94 287
e 94 290
e 94 294
e 94 300
e 94 304
e 94 312
e 94 314
e 94 316
e 94 319
e 94 328
e 94 329
e 94 330
e 94 331
e 94 334
e 94 336
e 94 338
e 94 339
e 94 346
e 94 348
e 94 350
e 94 353
e 94 358
e 94 359
e 94 361
e 94 362
e 94 365
e 94 366
e 94 367
e 94 368
e 94 371
e 94 372
e 94 376
e 94 381
e 94 385
e 94 387
e 94 391
e 94 393
e 94 394
e 94 395
e 94 397
e 94 403
e 94 408
e 94 417
e 94 419
e 94 422
e 94 441
e 94 448
e 94 464
e 95 101
e 95 107
e 95 108
e 95 111
e 95 125
e 95 130
e 95 131
e 95 139
e 95 143
e 95 144
e 95 148
e 95 153
e 95 154
e 95 161
e 95 162
e 95 164
e 95 166
e 95 174
e 95 176
e 95 180
e 95 181
e 95 189
e 95 191
e 95 192
e 95 198
e 95 202
e 95 203
e 95 204
e 95 205
e 95 206
e 95 207
e 95 210
e 95 211
e 95 212
e 95 213
e 95 219
e 95 222
e 95 226
e 95 227
e 95 228
e 95 239
e 95 241
e 95 246
e 95 248
e 95 251
e 95 260
e 95 275
e 95 284
e 95 286
e 95 287
e 95 290
e 95 295
e 95 296
e 95 297
e 95 300
e 95 307
e 95 311
e 95 319
e 95 326
e 95 330
e 95 332
e 95 334
e 95 335
e 95 338
e 95 344
e 95 346
e 95 352
e 95 357
e 95 372
e 95 376
e 95 377
e 95 378
e 95 379
e 95 380
e 95 383
e 95 384
e 95 388
e 95 389
e 95 390
e 95 412
e 95 413
e 95 416
e 95 420
e 95 423
e 95 426
e 95 429
e 95 436
e 95 444
e 95 447
e 95 450
e 95 452
e 95 454
e 95 456
e 95 457
e 95 460
e 95 462
e 95 466
e 95 467
e 95 470
e 95 471
e 95 473
e 95 474
e 95 477
e 95 478
e 95 479
e 95 480
e 95 854
e 96 97
e 96 98
e 96 99
e 96 100
e 96 108
e 96 117
e 96 166
e 96 186
e 96 188
e 96 189
e 96 192
e 96 199
e 96 203
e 96 210
e 96 215
e 96 217
e 96 219
e 96 227
e 96 234
e 96 242
e 96 246
e 96 262
e 96 263
e 96 269
e 96 280
e 96 290
e 96 294
e 96 300
e 96 304
e 96 319
e 96 329
e 96 347
e 96 356
e 96 366
e 96 387
e 96 417
e 96 441
e 97 99
e 97 100
e 97 103
e 97 104
e 97 107
e 97 108
e 97 116
e 97 117
e 97 118
e 97 120
e 97 122
e 97 123
e 97 130
e 97 139
e 97 140
e 97 153
e 97 157
e 97 161
e 97 164
e 97 166
e 97 176
e 97 177
e 97 180
e 97 182
e 97 186
e 97 188
e 97 199
e 97 203
e 97 204
e 97 208
e 97 210
e 97 211
e 97 213
e 97 220
e 97 222
e 97 223
e 97 224
e 97 225
e 97 226
e 97 227
e 97 230
e 97 234
e 97 236
e 97 239
e 97 241
e 97 246
e 97 248
e 97 263
e 97 264
e 97 265
e 97 269
e 97 271
e 97 273
e 97 274
e 97 277
e 97 280
e 97 283
e 97 286
e 97 287
e 97 288
e 97 289
e 97 290
e 97 294
e 97 300
e 97 302
e 97 304
e 97 312
e 97 314
e 97 316
e 97 319
e 97 322
e 97 323
e 97 328
e 97 329
e 97 330
e 97 332
e 97 334
e 97 335
e 97 336
e 97 337
e 97 338
e 97 339
e 97 346
e 97 348
e 97 350
e 97 354
e 97 356
e 97 358
e 97 359
e 97 361
e 97 362
e 97 366
e 97 367
e 97 368
e 97 371
e 97 372
e 97 377
e 97 380
e 97 386
e 97 387
e 97 388
e 97 393
e 97 395
e 97 396
e 97 397
e 97 417
e 97 418
e 97 419
e 97 420
e 97 421
e 97 422
e 97 432
e 97 437
e 97 441
e 97 443
e 97 448
e 97 449
e 97 455
e 97 459
e 97 460
e 97 464
e 97 465
e 97 469
e 98 99
e 98 100
e 98 101
e 98 107
e 98 117
e 98 153
e 98 161
e 98 166
e 98 181
e 98 186
e 98 188
e 98 189
e 98 192
e 98 203
e 98 213
e 98 215
e 98 217
e 98 219
e 98 225
e 98 236
e 98 242
e 98 246
e 98 251
e 98 262
e 98 265
e 98 269
e 98 280
e 98 287
e 98 290
e 98 300
e 98 304
e 98 319
e 98 329
e 98 330
e 98 339
e 98 347
e 98 356
e 98 417
e 98 432
e 98 441
e 98 461
e 99 100
e 99 108
e 99 116
e 99 117
e 99 118
e 99 130
e 99 140
e 99 161
e 99 166
e 99 176
e 99 186
e 99 188
e 99 189
e 99 192
e 99 199
e 99 202
e 99 203
e 99 208
e 99 210
e 99 211
e 99 215
e 99 217
e 99 219
e 99 220
e 99 224
e 99 227
e 99 234
e 99 241
e 99 242
e 99 246
e 99 248
e 99 262
e 99 263
e 99 267
e 99 269
e 99 272
e 99 274
e 99 280
e 99 288
e 99 290
e 99 294
e 99 300
e 99 304
e 99 306
e 99 312
e 99 319
e 99 322
e 99 323
e 99 329
e 99 330
e 99 334
e 99 346
e 99 347
e 99 354
e 99 356
e 99 361
e 99 364
e 99 366
e 99 372
e 99 380
e 99 387
e 99 388
e 99 394
e 99 398
e 99 417
e 99 419
e 99 420
e 99 437
e 99 441
e 99 447
e 99 448
e 99 449
e 99 459
e 99 464
e 99 465
e 99 470
e 99 481
e 99 482
e 99 483
e 99 484
e 99 485
e 99 505
e 99 510
e 99 513
e 99 538
e 99 543
e 99 548
e 99 550
e 99 551
e 99 552
e 99 560
e 99 561
e 99 562
e 99 563
e 99 564
e 99 570
e 99 577
e 99 578
e 99 588
e 99 596
e 99 616
e 99 623
e 99 627
e 99 631
e 99 633
e 99 642
e 99 650
e 99 654
e 99 666
e 99 676
e 99 687
e 99 691
e 99 706
e 99 707
e 99 709
e 99 710
e 99 721
e 99 735
e 99 736
e 99 741
e 99 742
e 99 744
e 99 745
e 99 757
e 99 769
e 99 777
e 99 778
e 99 796
e 99 799
e 99 817
e 99 822
e 99 826
e 99 827
e 99 830
e 99 835
e 99 836
e 99 848
e 100 108
e 100 117
e 100 166
e 100 186
e 100 188
e 100 189
e 100 192
e 100 199
e 100 203
e 100 210
e 100 215
e 100 217
e 100 219
e 100 227
e 100 234
e 100 242
e 100 246
e 100 262
e 100 263
e 100 269
e 100 280
e 100 290
e 100 294
e 100 300
e 100 304
e 100 319
e 100 329
e 100 347
e 100 356
e 100 366
e 100 387
e 100 417
e 100 441
e 101 102
e 101 103
e 101 105
e 101 106
e 101 107
e 101 108
e 101 109
e 101 111
e 101 117
e 101 119
e 101 121
e 101 124
e 101 125
e 101 126
e 101 127
e 101 128
e 101 130
e 101 131
e 101 132
e 101 134
e 101 135
e 101 136
e 101 139
e 101 140
e 101 141
e 101 142
e 101 143
e 101 144
e 101 147
e 101 149
e 101 150
e 101 152
e 101 153
e 101 154
e 101 155
e 101 156
e 101 157
e 101 160
e 101 161
e 101 162
e 101 164
e 101 165
e 101 166
e 101 172
e 101 173
e 101 174
e 101 175
e 101 176
e 101 177
e 101 178
e 101 179
e 101 180
e 101 181
e 101 182
e 101 183
e 101 184
e 101 185
e 101 187
e 101 189
e 101 190
e 101 191
e 101 192
e 101 194
e 101 195
e 101 197
e 101 198
e 101 199
e 101 200
e 101 201
e 101 202
e 101 203
e 101 204
e 101 206
e 101 207
e 101 208
e 101 209
e 101 210
e 101 211
e 101 212
e 101 213
e 101 214
e 101 215
e 101 216
e 101 217
e 101 219
e 101 220
e 101 222
e 101 223
e 101 224
e 101 225
e 101 226
e 101 227
e 101 228
e 101 230
e 101 231
e 101 232
e 101 233
e 101 234
e 101 235
e 101 236
e 101 237
e 101 238
e 101 239
e 101 240
e 101 241
e 101 242
e 101 244
e 101 245
e 101 246
e 101 247
e 101 248
e 101 249
e 101 250
e 101 251
e 101 252
e 101 254
e 101 255
e 101 257
e 101 258
e 101 260
e 101 261
e 101 262
e 101 263
e 101 264
e 101 265
e 101 267
e 101 269
e 101 271
e 101 272
e 101 273
e 101 274
e 101 275
e 101 276
e 101 277
e 101 278
e 101 279
e 101 280
e 101 281
e 101 282
e 101 284
e 101 285
e 101 286
e 101 287
e 101 289
e 101 290
e 101 291
e 101 292
e 101 293
e 101 294
e 101 295
e 101 296
e 101 297
e 101 298
e 101 299
e 101 300
e 101 301
e 101 302
e 101 303
e 101 304
e 101 305
e 101 306
e 101 307
e 101 308
e 101 309
e 101 310
e 101 311
e 101 313
e 101 314
e 101 315
e 101 316
e 101 317
e 101 318
e 101 319
e 101 325
e 101 326
e 101 327
e 101 328
e 101 329
e 101 330
e 101 331
e 101 332
e 101 333
e 101 334
e 101 335
e 101 336
e 101 338
e 101 339
e 101 340
e 101 342
e 101 343
e 101 344
e 101 345
e 101 346
e 101 347
e 101 348
e 101 349
e 101 350
e 101 351
e 101 352
e 101 353
e 101 355
e 101 356
e 101 357
e 101 358
e 101 359
e 101 361
e 101 363
e 101 364
e 101 365
e 101 366
e 101 367
e 101 368
e 101 369
e 101 370
e 101 371
e 101 372
e 101 373
e 101 374
e 101 375
e 101 376
e 101 377
e 101 378
e 101 379
e 101 380
e 101 381
e 101 382
e 101 383
e 101 384
e 101 385
e 101 386
e 101 388
e 101 389
e 101 390
e 101 392
e 101 393
e 101 394
e 101 395
e 101 396
e 101 397
e 101 398
e 101 399
e 101 400
e 101 401
e 101 402
e 101 403
e 101 404
e 101 405
e 101 406
e 101 407
e 101 408
e 101 412
e 101 413
e 101 414
e 101 415
e 101 416
e 101 417
e 101 418
e 101 419
e 101 420
e 101 421
e 101 422
e 101 423
e 101 424
e 101 425
e 101 426
e 101 427
e 101 428
e 101 429
e 101 430
e 101 431
e 101 432
e 101 433
e 101 435
e 101 436
e 101 437
e 101 438
e 101 439
e 101 440
e 101 441
e 101 442
e 101 443
e 101 444
e 101 447
e 101 448
e 101 449
e 101 450
e 101 451
e 101 452
e 101 453
e 101 454
e 101 455
e 101 456
e 101 457
e 101 458
e 101 459
e 101 460
e 101 461
e 101 462
e 101 463
e 101 464
e 101 465
e 101 466
e 101 467
e 101 468
e 101 469
e 101 470
e 101 471
e 101 472
e 101 473
e 101 474
e 101 475
e 101 476
e 101 477
e 101 478
e 101 479
e 101 480
e 101 483
e 101 484
e 101 485
e 101 486
e 101 487
e 101 489
e 101 493
e 101 494
e 101 496
e 101 497
e 101 498
e 101 499
e 101 501
e 101 502
e 101 503
e 101 504
e 101 505
e 101 507
e 101 508
e 101 509
e 101 510
e 101 511
e 101 513
e 101 514
e 101 515
e 101 516
e 101 517
e 101 519
e 101 520
e 101 522
e 101 524
e 101 526
e 101 529
e 101 530
e 101 531
e 101 532
e 101 533
e 101 535
e 101 538
e 101 543
e 101 548
e 101 549
e 101 550
e 101 551
e 101 552
e 101 553
e 101 556
e 101 558
e 101 563
e 101 565
e 101 567
e 101 568
e 101 569
e 101 570
e 101 578
e 101 582
e 101 585
e 101 586
e 101 588
e 101 589
e 101 590
e 101 591
e 101 592
e 101 595
e 101 596
e 101 597
e 101 602
e 101 604
e 101 606
e 101 607
e 101 608
e 101 609
e 101 610
e 101 613
e 101 615
e 101 616
e 101 622
e 101 623
e 101 625
e 101 626
e 101 627
e 101 629
e 101 632
e 101 633
e 101 635
e 101 637
e 101 638
e 101 640
e 101 641
e 101 642
e 101 643
e 101 644
e 101 647
e 101 653
e 101 654
e 101 657
e 101 659
e 101 660
e 101 661
e 101 663
e 101 664
e 101 665
e 101 666
e 101 667
e 101 668
e 101 670
e 101 671
e 101 672
e 101 673
e 101 674
e 101 675
e 101 676
e 101 678
e 101 679
e 101 680
e 101 682
e 101 685
e 101 686
e 101 687
e 101 688
e 101 691
e 101 693
e 101 695
e 101 697
e 101 698
e 101 699
e 101 700
e 101 701
e 101 702
e 101 704
e 101 705
e 101 707
e 101 708
e 101 709
e 101 710
e 101 711
e 101 712
e 101 713
e 101 714
e 101 715
e 101 716
e 101 717
e 101 718
e 101 719
e 101 720
e 101 721
e 101 722
e 101 723
e 101 724
e 101 725
e 101 727
e 101 728
e 101 729
e 101 731
e 101 732
e 101 737
e 101 738
e 101 739
e 101 740
e 101 741
e 101 742
e 101 743
e 101 744
e 101 745
e 101 746
e 101 748
e 101 749
e 101 751
e 101 752
e 101 753
e 101 754
e 101 755
e 101 756
e 101 757
e 101 758
e 101 759
e 101 762
e 101 764
e 101 766
e 101 767
e 101 768
e 101 769
e 101 770
e 101 771
e 101 772
e 101 773
e 101 774
e 101 775
e 101 776
e 101 778
e 101 779
e 101 780
e 101 781
e 101 782
e 101 783
e 101 784
e 101 785
e 101 786
e 101 787
e 101 788
e 101 789
e 101 790
e 101 794
e 101 795
e 101 796
e 101 797
e 101 798
e 101 799
e 101 800
e 101 801
e 101 803
e 101 804
e 101 805
e 101 807
e 101 808
e 101 809
e 101 810
e 101 811
e 101 812
e 101 814
e 101 815
e 101 816
e 101 817
e 101 818
e 101 821
e 101 822
e 101 823
e 101 824
e 101 825
e 101 826
e 101 827
e 101 828
e 101 829
e 101 830
e 101 831
e 101 832
e 101 833
e 101 834
e 101 835
e 101 836
e 101 837
e 101 838
e 101 840
e 101 841
e 101 842
e 101 843
e 101 844
e 101 845
e 101 846
e 101 847
e 101 848
e 101 849
e 101 850
e 101 851
e 101 852
e 101 853
e 101 854
e 101 855
e 102 103
e 102 108
e 102 109
e 102 125
e 102 173
e 102 174
e 102 191
e 102 195
e 102 213
e 102 215
e 102 227
e 102 241
e 102 244
e 102 249
e 102 250
e 102 251
e 102 260
e 102 262
e 102 286
e 102 287
e 102 296
e 102 306
e 102 329
e 102 334
e 102 356
e 102 367
e 102 407
e 102 439
e 102 443
e 102 462
e 102 468
e 102 473
e 102 854
e 103 107
e 103 108
e 103 109
e 103 111
e 103 125
e 103 130
e 103 131
e 103 134
e 103 136
e 103 139
e 103 147
e 103 153
e 103 157
e 103 160
e 103 161
e 103 164
e 103 166
e 103 173
e 103 174
e 103 181
e 103 182
e 103 191
e 103 192
e 103 194
e 103 195
e 103 198
e 103 201
e 103 203
e 103 204
e 103 208
e 103 210
e 103 211
e 103 213
e 103 215
e 103 223
e 103 225
e 103 227
e 103 228
e 103 230
e 103 233
e 103 235
e 103 241
e 103 244
e 103 245
e 103 247
e 103 248
e 103 249
e 103 250
e 103 251
e 103 260
e 103 262
e 103 265
e 103 267
e 103 269
e 103 272
e 103 274
e 103 279
e 103 280
e 103 281
e 103 282
e 103 284
e 103 285
e 103 286
e 103 287
e 103 290
e 103 291
e 103 292
e 103 293
e 103 296
e 103 299
e 103 300
e 103 306
e 103 307
e 103 315
e 103 316
e 103 318
e 103 319
e 103 325
e 103 326
e 103 327
e 103 328
e 103 329
e 103 330
e 103 333
e 103 334
e 103 336
e 103 338
e 103 339
e 103 344
e 103 345
e 103 348
e 103 350
e 103 353
e 103 356
e 103 358
e 103 367
e 103 368
e 103 372
e 103 377
e 103 380
e 103 382
e 103 388
e 103 389
e 103 392
e 103 393
e 103 395
e 103 397
e 103 398
e 103 407
e 103 414
e 103 415
e 103 417
e 103 422
e 103 438
e 103 439
e 103 443
e 103 448
e 103 451
e 103 452
e 103 453
e 103 454
e 103 456
e 103 457
e 103 458
e 103 462
e 103 468
e 103 473
e 103 479
e 103 854
e 104 117
e 104 164
e 104 166
e 104 177
e 104 180
e 104 211
e 104 283
e 104 287
e 104 290
e 104 302
e 104 329
e 104 332
e 104 335
e 104 336
e 104 356
e 104 362
e 104 371
e 104 377
e 104 395
e 104 396
e 104 397
e 104 455
e 104 460
e 105 106
e 105 128
e 105 152
e 105 157
e 105 166
e 105 197
e 105 198
e 105 200
e 105 211
e 105 217
e 105 220
e 105 231
e 105 251
e 105 264
e 105 290
e 105 292
e 105 296
e 105 300
e 105 302
e 105 303
e 105 327
e 105 330
e 105 334
e 105 355
e 105 363
e 105 368
e 105 376
e 105 399
e 105 425
e 105 429
e 105 431
e 106 128
e 106 152
e 106 157
e 106 166
e 106 197
e 106 198
e 106 200
e 106 211
e 106 217
e 106 220
e 106 231
e 106 251
e 106 264
e 106 290
e 106 292
e 106 296
e 106 300
e 106 302
e 106 303
e 106 327
e 106 330
e 106 334
e 106 355
e 106 363
e 106 368
e 106 376
e 106 399
e 106 425
e 106 429
e 106 431
e 107 108
e 107 109
e 107 111
e 107 115
e 107 117
e 107 121
e 107 122
e 107 123
e 107 125
e 107 126
e 107 127
e 107 128
e 107 130
e 107 131
e 107 132
e 107 133
e 107 134
e 107 136
e 107 137
e 107 139
e 107 141
e 107 145
e 107 147
e 107 149
e 107 153
e 107 154
e 107 157
e 107 160
e 107 161
e 107 164
e 107 165
e 107 166
e 107 173
e 107 174
e 107 175
e 107 176
e 107 179
e 107 181
e 107 183
e 107 184
e 107 186
e 107 189
e 107 192
e 107 193
e 107 194
e 107 195
e 107 198
e 107 199
e 107 201
e 107 202
e 107 203
e 107 204
e 107 206
e 107 208
e 107 210
e 107 211
e 107 212
e 107 213
e 107 214
e 107 215
e 107 216
e 107 217
e 107 219
e 107 220
e 107 222
e 107 224
e 107 225
e 107 226
e 107 227
e 107 228
e 107 229
e 107 230
e 107 234
e 107 235
e 107 236
e 107 237
e 107 239
e 107 241
e 107 242
e 107 244
e 107 245
e 107 246
e 107 247
e 107 248
e 107 249
e 107 250
e 107 251
e 107 253
e 107 254
e 107 255
e 107 256
e 107 257
e 107 258
e 107 259
e 107 260
e 107 261
e 107 262
e 107 263
e 107 264
e 107 265
e 107 266
e 107 267
e 107 268
e 107 269
e 107 271
e 107 272
e 107 273
e 107 274
e 107 277
e 107 278
e 107 279
e 107 280
e 107 281
e 107 282
e 107 283
e 107 284
e 107 285
e 107 287
e 107 290
e 107 291
e 107 292
e 107 293
e 107 294
e 107 295
e 107 296
e 107 298
e 107 299
e 107 300
e 107 302
e 107 303
e 107 307
e 107 311
e 107 313
e 107 314
e 107 316
e 107 317
e 107 318
e 107 319
e 107 320
e 107 321
e 107 322
e 107 325
e 107 326
e 107 327
e 107 328
e 107 329
e 107 330
e 107 331
e 107 332
e 107 334
e 107 335
e 107 336
e 107 337
e 107 338
e 107 339
e 107 342
e 107 343
e 107 344
e 107 345
e 107 346
e 107 347
e 107 349
e 107 352
e 107 353
e 107 354
e 107 355
e 107 356
e 107 358
e 107 364
e 107 366
e 107 367
e 107 368
e 107 371
e 107 372
e 107 373
e 107 375
e 107 379
e 107 380
e 107 382
e 107 384
e 107 386
e 107 387
e 107 388
e 107 389
e 107 390
e 107 391
e 107 392
e 107 393
e 107 394
e 107 395
e 107 396
e 107 397
e 107 400
e 107 401
e 107 404
e 107 407
e 107 409
e 107 410
e 107 411
e 107 413
e 107 414
e 107 415
e 107 416
e 107 417
e 107 418
e 107 420
e 107 421
e 107 422
e 107 424
e 107 427
e 107 429
e 107 430
e 107 431
e 107 432
e 107 433
e 107 435
e 107 436
e 107 437
e 107 438
e 107 440
e 107 441
e 107 442
e 107 443
e 107 444
e 107 445
e 107 446
e 107 449
e 107 450
e 107 451
e 107 452
e 107 453
e 107 454
e 107 456
e 107 457
e 107 458
e 107 459
e 107 460
e 107 461
e 107 462
e 107 463
e 107 465
e 107 466
e 107 467
e 107 468
e 107 469
e 107 470
e 107 471
e 107 472
e 107 473
e 107 474
e 107 478
e 107 480
e 107 484
e 107 487
e 107 488
e 107 489
e 107 490
e 107 491
e 107 492
e 107 494
e 107 495
e 107 496
e 107 497
e 107 507
e 107 514
e 107 516
e 107 519
e 107 522
e 107 535
e 107 536
e 107 537
e 107 538
e 107 539
e 107 542
e 107 549
e 107 550
e 107 551
e 107 555
e 107 570
e 107 571
e 107 572
e 107 573
e 107 574
e 107 575
e 107 578
e 107 586
e 107 588
e 107 590
e 107 595
e 107 596
e 107 602
e 107 608
e 107 609
e 107 616
e 107 623
e 107 625
e 107 627
e 107 641
e 107 644
e 107 654
e 107 679
e 107 680
e 107 686
e 107 687
e 107 697
e 107 701
e 107 704
e 107 707
e 107 708
e 107 714
e 107 715
e 107 716
e 107 723
e 107 724
e 107 725
e 107 735
e 107 740
e 107 742
e 107 744
e 107 745
e 107 751
e 107 759
e 107 763
e 107 764
e 107 774
e 107 777
e 107 799
e 107 804
e 107 806
e 107 807
e 107 809
e 107 812
e 107 817
e 107 854
e 108 109
e 108 111
e 108 115
e 108 117
e 108 121
e 108 122
e 108 123
e 108 125
e 108 126
e 108 128
e 108 130
e 108 131
e 108 132
e 108 133
e 108 134
e 108 137
e 108 138
e 108 139
e 108 140
e 108 145
e 108 147
e 108 149
e 108 153
e 108 154
e 108 155
e 108 156
e 108 157
e 108 158
e 108 160
e 108 162
e 108 164
e 108 165
e 108 166
e 108 171
e 108 173
e 108 174
e 108 176
e 108 177
e 108 178
e 108 179
e 108 181
e 108 182
e 108 183
e 108 184
e 108 185
e 108 186
e 108 188
e 108 189
e 108 190
e 108 191
e 108 192
e 108 195
e 108 198
e 108 199
e 108 201
e 108 203
e 108 204
e 108 206
e 108 207
e 108 208
e 108 210
e 108 211
e 108 212
e 108 213
e 108 214
e 108 215
e 108 217
e 108 219
e 108 220
e 108 221
e 108 222
e 108 224
e 108 225
e 108 226
e 108 227
e 108 228
e 108 229
e 108 230
e 108 232
e 108 234
e 108 235
e 108 237
e 108 238
e 108 239
e 108 240
e 108 241
e 108 242
e 108 244
e 108 245
e 108 246
e 108 247
e 108 248
e 108 249
e 108 250
e 108 251
e 108 252
e 108 253
e 108 254
e 108 255
e 108 256
e 108 257
e 108 259
e 108 260
e 108 262
e 108 263
e 108 264
e 108 265
e 108 266
e 108 267
e 108 269
e 108 271
e 108 272
e 108 273
e 108 274
e 108 275
e 108 277
e 108 279
e 108 280
e 108 281
e 108 282
e 108 283
e 108 284
e 108 285
e 108 286
e 108 287
e 108 290
e 108 291
e 108 292
e 108 293
e 108 294
e 108 296
e 108 298
e 108 299
e 108 300
e 108 302
e 108 303
e 108 304
e 108 305
e 108 306
e 108 307
e 108 308
e 108 309
e 108 313
e 108 314
e 108 316
e 108 317
e 108 318
e 108 319
e 108 320
e 108 322
e 108 324
e 108 325
e 108 326
e 108 327
e 108 328
e 108 329
e 108 330
e 108 331
e 108 332
e 108 334
e 108 335
e 108 336
e 108 337
e 108 338
e 108 340
e 108 342
e 108 344
e 108 345
e 108 346
e 108 347
e 108 349
e 108 350
e 108 351
e 108 354
e 108 355
e 108 356
e 108 358
e 108 359
e 108 360
e 108 362
e 108 364
e 108 365
e 108 366
e 108 367
e 108 368
e 108 371
e 108 372
e 108 374
e 108 375
e 108 376
e 108 377
e 108 378
e 108 379
e 108 380
e 108 381
e 108 382
e 108 383
e 108 385
e 108 386
e 108 387
e 108 388
e 108 389
e 108 390
e 108 391
e 108 392
e 108 393
e 108 394
e 108 395
e 108 396
e 108 397
e 108 401
e 108 403
e 108 406
e 108 407
e 108 409
e 108 410
e 108 411
e 108 413
e 108 414
e 108 415
e 108 416
e 108 417
e 108 419
e 108 420
e 108 421
e 108 422
e 108 423
e 108 424
e 108 426
e 108 428
e 108 429
e 108 431
e 108 432
e 108 433
e 108 434
e 108 435
e 108 436
e 108 437
e 108 439
e 108 440
e 108 441
e 108 442
e 108 443
e 108 444
e 108 445
e 108 446
e 108 447
e 108 449
e 108 450
e 108 451
e 108 452
e 108 453
e 108 454
e 108 455
e 108 456
e 108 457
e 108 458
e 108 459
e 108 461
e 108 462
e 108 464
e 108 465
e 108 466
e 108 468
e 108 469
e 108 470
e 108 471
e 108 472
e 108 473
e 108 475
e 108 476
e 108 477
e 108 478
e 108 480
e 108 854
e 109 110
e 109 111
e 109 112
e 109 113
e 109 114
e 109 117
e 109 125
e 109 128
e 109 137
e 109 140
e 109 145
e 109 157
e 109 165
e 109 166
e 109 173
e 109 174
e 109 176
e 109 191
e 109 192
e 109 195
e 109 203
e 109 206
e 109 211
e 109 212
e 109 213
e 109 215
e 109 217
e 109 220
e 109 224
e 109 227
e 109 229
e 109 237
e 109 241
e 109 243
e 109 244
e 109 249
e 109 250
e 109 251
e 109 253
e 109 255
e 109 256
e 109 260
e 109 261
e 109 262
e 109 282
e 109 283
e 109 284
e 109 286
e 109 287
e 109 290
e 109 296
e 109 306
e 109 308
e 109 309
e 109 320
e 109 326
e 109 329
e 109 334
e 109 337
e 109 338
e 109 354
e 109 356
e 109 364
e 109 367
e 109 368
e 109 376
e 109 386
e 109 394
e 109 395
e 109 407
e 109 417
e 109 419
e 109 429
e 109 431
e 109 432
e 109 436
e 109 439
e 109 441
e 109 442
e 109 443
e 109 456
e 109 462
e 109 468
e 109 469
e 109 471
e 109 472
e 109 473
e 109 854
e 110 111
e 110 112
e 110 113
e 110 114
e 110 117
e 110 128
e 110 140
e 110 165
e 110 166
e 110 176
e 110 206
e 110 211
e 110 217
e 110 220
e 110 224
e 110 229
e 110 243
e 110 251
e 110 261
e 110 262
e 110 287
e 110 290
e 110 296
e 110 308
e 110 309
e 110 354
e 110 364
e 110 368
e 110 376
e 110 394
e 110 417
e 110 419
e 110 429
e 110 431
e 110 441
e 111 112
e 111 113
e 111 114
e 111 117
e 111 128
e 111 130
e 111 131
e 111 136
e 111 139
e 111 140
e 111 154
e 111 162
e 111 164
e 111 165
e 111 166
e 111 174
e 111 176
e 111 179
e 111 180
e 111 181
e 111 189
e 111 191
e 111 192
e 111 194
e 111 196
e 111 204
e 111 206
e 111 207
e 111 210
e 111 211
e 111 212
e 111 213
e 111 217
e 111 220
e 111 222
e 111 224
e 111 225
e 111 226
e 111 227
e 111 229
e 111 232
e 111 235
e 111 239
e 111 241
e 111 243
e 111 245
e 111 246
e 111 248
e 111 251
e 111 260
e 111 261
e 111 262
e 111 267
e 111 272
e 111 279
e 111 281
e 111 282
e 111 284
e 111 285
e 111 286
e 111 287
e 111 290
e 111 291
e 111 292
e 111 293
e 111 296
e 111 299
e 111 300
e 111 301
e 111 307
e 111 308
e 111 309
e 111 310
e 111 315
e 111 322
e 111 326
e 111 330
e 111 333
e 111 334
e 111 336
e 111 341
e 111 344
e 111 345
e 111 347
e 111 351
e 111 353
e 111 354
e 111 357
e 111 364
e 111 368
e 111 372
e 111 374
e 111 375
e 111 376
e 111 378
e 111 380
e 111 383
e 111 388
e 111 389
e 111 390
e 111 394
e 111 398
e 111 400
e 111 402
e 111 405
e 111 408
e 111 412
e 111 414
e 111 417
e 111 419
e 111 423
e 111 425
e 111 426
e 111 429
e 111 431
e 111 433
e 111 441
e 111 444
e 111 450
e 111 452
e 111 453
e 111 456
e 111 457
e 111 462
e 111 467
e 111 475
e 111 476
e 111 477
e 111 479
e 112 113
e 112 114
e 112 117
e 112 128
e 112 140
e 112 165
e 112 166
e 112 176
e 112 206
e 112 211
e 112 217
e 112 220
e 112 224
e 112 229
e 112 243
e 112 251
e 112 261
e 112 262
e 112 287
e 112 290
e 112 296
e 112 308
e 112 309
e 112 354
e 112 364
e 112 368
e 112 376
e 112 394
e 112 417
e 112 419
e 112 429
e 112 431
e 112 441
e 113 114
e 113 117
e 113 128
e 113 140
e 113 165
e 113 166
e 113 176
e 113 206
e 113 211
e 113 217
e 113 220
e 113 224
e 113 229
e 113 243
e 113 251
e 113 261
e 113 262
e 113 287
e 113 290
e 113 296
e 113 308
e 113 309
e 113 354
e 113 364
e 113 368
e 113 376
e 113 394
e 113 417
e 113 419
e 113 429
e 113 431
e 113 441
e 114 117
e 114 128
e 114 140
e 114 165
e 114 166
e 114 176
e 114 206
e 114 211
e 114 217
e 114 220
e 114 224
e 114 229
e 114 243
e 114 251
e 114 261
e 114 262
e 114 287
e 114 290
e 114 296
e 114 308
e 114 309
e 114 354
e 114 364
e 114 368
e 114 376
e 114 394
e 114 417
e 114 419
e 114 429
e 114 431
e 114 441
e 115 125
e 115 181
e 115 199
e 115 211
e 115 213
e 115 225
e 115 244
e 115 245
e 115 264
e 115 272
e 115 300
e 115 317
e 115 318
e 115 319
e 115 329
e 115 349
e 115 366
e 115 372
e 115 382
e 115 387
e 115 391
e 115 392
e 115 395
e 115 429
e 115 432
e 115 457
e 115 461
e 116 117
e 116 118
e 116 130
e 116 140
e 116 161
e 116 176
e 116 208
e 116 220
e 116 224
e 116 248
e 116 280
e 116 288
e 116 312
e 116 322
e 116 323
e 116 330
e 116 334
e 116 346
e 116 354
e 116 361
e 116 372
e 116 380
e 116 388
e 116 417
e 116 419
e 116 420
e 116 437
e 116 448
e 116 449
e 116 459
e 116 464
e 116 465
e 117 118
e 117 120
e 117 122
e 117 123
e 117 128
e 117 130
e 117 131
e 117 132
e 117 139
e 117 140
e 117 153
e 117 157
e 117 160
e 117 161
e 117 162
e 117 164
e 117 165
e 117 166
e 117 171
e 117 174
e 117 176
e 117 177
e 117 178
e 117 180
e 117 181
e 117 182
e 117 183
e 117 184
e 117 185
e 117 186
e 117 188
e 117 189
e 117 192
e 117 198
e 117 199
e 117 200
e 117 203
e 117 204
e 117 206
e 117 207
e 117 208
e 117 210
e 117 211
e 117 212
e 117 213
e 117 215
e 117 217
e 117 219
e 117 220
e 117 221
e 117 222
e 117 223
e 117 224
e 117 225
e 117 226
e 117 227
e 117 228
e 117 229
e 117 230
e 117 231
e 117 236
e 117 238
e 117 239
e 117 240
e 117 241
e 117 242
e 117 243
e 117 244
e 117 246
e 117 248
e 117 251
e 117 257
e 117 259
e 117 260
e 117 261
e 117 262
e 117 263
e 117 264
e 117 265
e 117 269
e 117 271
e 117 272
e 117 273
e 117 274
e 117 277
e 117 278
e 117 280
e 117 283
e 117 286
e 117 287
e 117 288
e 117 289
e 117 290
e 117 292
e 117 293
e 117 294
e 117 296
e 117 298
e 117 300
e 117 302
e 117 303
e 117 304
e 117 305
e 117 306
e 117 308
e 117 309
e 117 312
e 117 314
e 117 316
e 117 319
e 117 322
e 117 323
e 117 327
e 117 328
e 117 329
e 117 330
e 117 331
e 117 332
e 117 334
e 117 335
e 117 336
e 117 337
e 117 338
e 117 339
e 117 340
e 117 342
e 117 346
e 117 347
e 117 348
e 117 354
e 117 355
e 117 356
e 117 359
e 117 360
e 117 361
e 117 362
e 117 364
e 117 366
e 117 367
e 117 368
e 117 371
e 117 372
e 117 375
e 117 376
e 117 377
e 117 378
e 117 379
e 117 380
e 117 383
e 117 384
e 117 386
e 117 388
e 117 389
e 117 390
e 117 394
e 117 395
e 117 396
e 117 397
e 117 401
e 117 403
e 117 406
e 117 414
e 117 417
e 117 418
e 117 419
e 117 420
e 117 421
e 117 422
e 117 424
e 117 426
e 117 429
e 117 431
e 117 432
e 117 434
e 117 437
e 117 438
e 117 440
e 117 441
e 117 443
e 117 444
e 117 445
e 117 446
e 117 448
e 117 449
e 117 451
e 117 453
e 117 454
e 117 455
e 117 456
e 117 457
e 117 458
e 117 459
e 117 460
e 117 461
e 117 462
e 117 464
e 117 465
e 117 466
e 117 469
e 117 475
e 117 476
e 117 478
e 117 480
e 117 854
e 118 130
e 118 140
e 118 161
e 118 176
e 118 208
e 118 220
e 118 224
e 118 248
e 118 280
e 118 288
e 118 312
e 118 322
e 118 323
e 118 330
e 118 334
e 118 346
e 118 354
e 118 361
e 118 372
e 118 380
e 118 388
e 118 417
e 118 419
e 118 420
e 118 437
e 118 448
e 118 449
e 118 459
e 118 464
e 118 465
e 119 132
e 119 139
e 119 174
e 119 212
e 119 239
e 119 284
e 119 314
e 119 326
e 119 330
e 119 347
e 119 357
e 119 383
e 119 390
e 119 400
e 119 412
e 119 426
e 119 437
e 119 467
e 119 469
e 119 472
e 119 480
e 120 182
e 120 222
e 120 223
e 120 227
e 120 236
e 120 264
e 120 283
e 120 289
e 120 290
e 120 316
e 120 319
e 120 338
e 120 339
e 120 348
e 120 359
e 120 377
e 120 386
e 120 395
e 120 418
e 120 422
e 120 432
e 120 443
e 120 469
e 121 131
e 121 143
e 121 157
e 121 162
e 121 174
e 121 176
e 121 181
e 121 192
e 121 199
e 121 202
e 121 206
e 121 211
e 121 213
e 121 220
e 121 223
e 121 225
e 121 241
e 121 244
e 121 246
e 121 255
e 121 257
e 121 260
e 121 264
e 121 265
e 121 273
e 121 274
e 121 280
e 121 287
e 121 290
e 121 293
e 121 300
e 121 306
e 121 309
e 121 316
e 121 317
e 121 318
e 121 319
e 121 328
e 121 329
e 121 330
e 121 331
e 121 334
e 121 338
e 121 346
e 121 350
e 121 351
e 121 354
e 121 358
e 121 359
e 121 361
e 121 364
e 121 366
e 121 368
e 121 381
e 121 383
e 121 385
e 121 387
e 121 391
e 121 393
e 121 394
e 121 395
e 121 396
e 121 400
e 121 417
e 121 426
e 121 443
e 121 444
e 121 447
e 121 452
e 121 453
e 121 454
e 121 459
e 121 464
e 121 468
e 121 470
e 121 471
e 121 474
e 121 478
e 121 483
e 121 484
e 121 485
e 121 488
e 121 489
e 121 493
e 121 496
e 121 497
e 121 499
e 121 502
e 121 504
e 121 505
e 121 507
e 121 508
e 121 509
e 121 510
e 121 515
e 121 516
e 121 522
e 121 526
e 121 529
e 121 531
e 121 535
e 121 538
e 121 543
e 121 548
e 121 549
e 121 550
e 121 552
e 121 565
e 121 567
e 121 568
e 121 569
e 121 570
e 121 571
e 121 572
e 121 573
e 121 574
e 121 575
e 121 578
e 121 586
e 121 588
e 121 589
e 121 593
e 121 594
e 121 595
e 121 596
e 121 606
e 121 607
e 121 610
e 121 613
e 121 615
e 121 616
e 121 622
e 121 623
e 121 624
e 121 627
e 121 629
e 121 634
e 121 635
e 121 638
e 121 640
e 121 641
e 121 642
e 121 643
e 121 645
e 121 646
e 121 647
e 121 648
e 121 649
e 121 654
e 121 657
e 121 659
e 121 661
e 121 662
e 121 663
e 121 664
e 121 672
e 121 674
e 121 675
e 121 676
e 121 678
e 121 679
e 121 686
e 121 687
e 121 688
e 121 695
e 121 696
e 121 698
e 121 699
e 121 704
e 121 706
e 121 707
e 121 709
e 121 710
e 121 711
e 121 712
e 121 713
e 121 714
e 121 715
e 121 716
e 121 717
e 121 719
e 121 721
e 121 722
e 121 724
e 121 726
e 121 728
e 121 731
e 121 735
e 121 738
e 121 739
e 121 740
e 121 741
e 121 742
e 121 744
e 121 745
e 121 751
e 121 752
e 121 754
e 121 756
e 121 757
e 121 759
e 121 760
e 121 761
e 121 762
e 121 763
e 121 765
e 121 769
e 121 770
e 121 774
e 121 775
e 121 776
e 121 778
e 121 780
e 121 781
e 121 782
e 121 783
e 121 784
e 121 785
e 121 787
e 121 791
e 121 792
e 121 793
e 121 796
e 121 798
e 121 799
e 121 800
e 121 802
e 121 803
e 121 804
e 121 807
e 121 809
e 121 810
e 121 813
e 121 815
e 121 816
e 121 817
e 121 819
e 121 820
e 121 821
e 121 822
e 121 824
e 121 827
e 121 828
e 121 829
e 121 830
e 121 831
e 121 832
e 121 833
e 121 835
e 121 836
e 121 837
e 121 839
e 121 841
e 121 842
e 121 844
e 121 847
e 121 848
e 121 850
e 121 851
e 121 852
e 121 855
e 122 123
e 122 203
e 122 204
e 122 210
e 122 213
e 122 222
e 122 226
e 122 227
e 122 230
e 122 239
e 122 241
e 122 271
e 122 273
e 122 274
e 122 277
e 122 283
e 122 300
e 122 316
e 122 334
e 122 337
e 122 356
e 122 366
e 122 367
e 122 421
e 122 432
e 123 203
e 123 204
e 123 210
e 123 213
e 123 222
e 123 226
e 123 227
e 123 230
e 123 239
e 123 241
e 123 271
e 123 273
e 123 274
e 123 277
e 123 283
e 123 300
e 123 316
e 123 334
e 123 337
e 123 356
e 123 366
e 123 367
e 123 421
e 123 432
e 124 131
e 124 181
e 124 192
e 124 198
e 124 206
e 124 213
e 124 217
e 124 241
e 124 272
e 124 275
e 124 276
e 124 287
e 124 290
e 124 293
e 124 299
e 124 317
e 124 318
e 124 329
e 124 334
e 124 338
e 124 370
e 124 372
e 124 386
e 124 418
e 124 436
e 124 438
e 124 440
e 124 450
e 124 455
e 124 456
e 124 472
e 124 477
e 125 126
e 125 130
e 125 131
e 125 137
e 125 139
e 125 142
e 125 143
e 125 144
e 125 148
e 125 153
e 125 154
e 125 161
e 125 162
e 125 164
e 125 166
e 125 173
e 125 174
e 125 176
e 125 181
e 125 191
e 125 192
e 125 195
e 125 198
e 125 199
e 125 201
e 125 202
e 125 203
e 125 204
e 125 205
e 125 206
e 125 209
e 125 210
e 125 211
e 125 213
e 125 214
e 125 215
e 125 219
e 125 222
e 125 225
e 125 227
e 125 228
e 125 230
e 125 235
e 125 236
e 125 237
e 125 239
e 125 241
e 125 244
e 125 245
e 125 246
e 125 248
e 125 249
e 125 250
e 125 251
e 125 253
e 125 254
e 125 256
e 125 260
e 125 261
e 125 262
e 125 264
e 125 266
e 125 272
e 125 275
e 125 283
e 125 286
e 125 287
e 125 289
e 125 290
e 125 293
e 125 295
e 125 296
e 125 297
e 125 299
e 125 300
e 125 302
e 125 306
e 125 311
e 125 317
e 125 318
e 125 319
e 125 320
e 125 329
e 125 330
e 125 332
e 125 334
e 125 335
e 125 337
e 125 338
e 125 342
e 125 344
e 125 346
e 125 349
e 125 352
e 125 356
e 125 366
e 125 367
e 125 369
e 125 370
e 125 372
e 125 377
e 125 379
e 125 380
e 125 382
e 125 384
e 125 386
e 125 387
e 125 388
e 125 389
e 125 390
e 125 391
e 125 392
e 125 395
e 125 407
e 125 413
e 125 415
e 125 416
e 125 420
e 125 421
e 125 428
e 125 429
e 125 432
e 125 435
e 125 436
e 125 438
e 125 439
e 125 440
e 125 442
e 125 443
e 125 447
e 125 449
e 125 450
e 125 451
e 125 452
e 125 453
e 125 454
e 125 455
e 125 456
e 125 457
e 125 460
e 125 461
e 125 462
e 125 466
e 125 468
e 125 469
e 125 470
e 125 471
e 125 472
e 125 473
e 125 474
e 125 477
e 125 478
e 125 480
e 125 854
e 126 128
e 126 134
e 126 137
e 126 139
e 126 140
e 126 143
e 126 153
e 126 154
e 126 161
e 126 162
e 126 165
e 126 166
e 126 167
e 126 170
e 126 173
e 126 174
e 126 176
e 126 180
e 126 181
e 126 190
e 126 192
e 126 195
e 126 199
e 126 202
e 126 203
e 126 206
e 126 207
e 126 211
e 126 213
e 126 214
e 126 220
e 126 222
e 126 225
e 126 229
e 126 230
e 126 237
e 126 241
e 126 253
e 126 254
e 126 256
e 126 257
e 126 260
e 126 263
e 126 266
e 126 267
e 126 270
e 126 272
e 126 283
e 126 287
e 126 288
e 126 290
e 126 292
e 126 293
e 126 296
e 126 298
e 126 300
e 126 313
e 126 314
e 126 316
e 126 320
e 126 323
e 126 324
e 126 328
e 126 329
e 126 336
e 126 337
e 126 338
e 126 342
e 126 350
e 126 354
e 126 360
e 126 361
e 126 364
e 126 365
e 126 367
e 126 371
e 126 372
e 126 381
e 126 383
e 126 385
e 126 386
e 126 388
e 126 394
e 126 395
e 126 397
e 126 400
e 126 403
e 126 420
e 126 421
e 126 429
e 126 431
e 126 432
e 126 434
e 126 441
e 126 442
e 126 444
e 126 448
e 126 451
e 126 453
e 126 456
e 126 457
e 126 459
e 126 461
e 126 465
e 126 469
e 126 471
e 126 472
e 126 474
e 126 483
e 126 497
e 126 501
e 126 502
e 126 507
e 126 508
e 126 509
e 126 510
e 126 513
e 126 524
e 126 531
e 126 534
e 126 535
e 126 541
e 126 543
e 126 548
e 126 549
e 126 551
e 126 552
e 126 553
e 126 556
e 126 558
e 126 569
e 126 570
e 126 578
e 126 586
e 126 589
e 126 595
e 126 600
e 126 604
e 126 605
e 126 613
e 126 626
e 126 627
e 126 628
e 126 630
e 126 633
e 126 638
e 126 642
e 126 647
e 126 654
e 126 657
e 126 660
e 126 669
e 126 670
e 126 671
e 126 672
e 126 673
e 126 674
e 126 676
e 126 681
e 126 682
e 126 683
e 126 684
e 126 689
e 126 693
e 126 700
e 126 701
e 126 703
e 126 704
e 126 707
e 126 720
e 126 721
e 126 733
e 126 741
e 126 742
e 126 747
e 126 749
e 126 752
e 126 757
e 126 758
e 126 762
e 126 769
e 126 770
e 126 773
e 126 774
e 126 780
e 126 784
e 126 789
e 126 795
e 126 796
e 126 797
e 126 799
e 126 805
e 126 807
e 126 811
e 126 818
e 126 838
e 126 840
e 126 842
e 126 843
e 126 853
e 126 854
e 126 855
e 127 132
e 127 139
e 127 160
e 127 176
e 127 192
e 127 204
e 127 213
e 127 217
e 127 246
e 127 255
e 127 257
e 127 258
e 127 284
e 127 293
e 127 314
e 127 330
e 127 334
e 127 346
e 127 347
e 127 372
e 127 373
e 127 380
e 127 400
e 127 404
e 127 417
e 127 436
e 127 437
e 127 467
e 127 474
e 127 478
e 127 480
e 128 129
e 128 130
e 128 131
e 128 133
e 128 140
e 128 148
e 128 152
e 128 153
e 128 154
e 128 157
e 128 160
e 128 162
e 128 164
e 128 165
e 128 166
e 128 167
e 128 170
e 128 173
e 128 174
e 128 176
e 128 180
e 128 183
e 128 189
e 128 192
e 128 194
e 128 197
e 128 198
e 128 199
e 128 200
e 128 203
e 128 204
e 128 206
e 128 208
e 128 210
e 128 211
e 128 212
e 128 213
e 128 217
e 128 219
e 128 220
e 128 222
e 128 224
e 128 225
e 128 227
e 128 229
e 128 231
e 128 233
e 128 239
e 128 243
e 128 244
e 128 245
e 128 246
e 128 251
e 128 259
e 128 260
e 128 261
e 128 262
e 128 263
e 128 264
e 128 270
e 128 278
e 128 280
e 128 284
e 128 285
e 128 287
e 128 290
e 128 292
e 128 293
e 128 294
e 128 296
e 128 298
e 128 299
e 128 300
e 128 302
e 128 303
e 128 304
e 128 308
e 128 309
e 128 314
e 128 322
e 128 323
e 128 324
e 128 327
e 128 328
e 128 330
e 128 331
e 128 334
e 128 338
e 128 340
e 128 341
e 128 342
e 128 347
e 128 354
e 128 355
e 128 356
e 128 363
e 128 364
e 128 368
e 128 372
e 128 374
e 128 375
e 128 376
e 128 378
e 128 385
e 128 388
e 128 394
e 128 398
e 128 399
e 128 400
e 128 402
e 128 405
e 128 406
e 128 409
e 128 410
e 128 411
e 128 414
e 128 417
e 128 419
e 128 422
e 128 423
e 128 424
e 128 425
e 128 429
e 128 431
e 128 437
e 128 439
e 128 440
e 128 441
e 128 444
e 128 445
e 128 446
e 128 451
e 128 453
e 128 457
e 128 462
e 128 466
e 128 470
e 129 148
e 129 154
e 129 164
e 129 192
e 129 194
e 129 199
e 129 204
e 129 211
e 129 220
e 129 221
e 129 222
e 129 229
e 129 233
e 129 243
e 129 245
e 129 246
e 129 262
e 129 263
e 129 270
e 129 280
e 129 282
e 129 284
e 129 299
e 129 310
e 129 312
e 129 324
e 129 334
e 129 341
e 129 346
e 129 353
e 129 354
e 129 360
e 129 361
e 129 388
e 129 400
e 129 408
e 129 414
e 129 425
e 129 453
e 129 475
e 130 131
e 130 132
e 130 133
e 130 135
e 130 139
e 130 140
e 130 141
e 130 143
e 130 144
e 130 147
e 130 152
e 130 153
e 130 154
e 130 155
e 130 156
e 130 157
e 130 158
e 130 160
e 130 161
e 130 162
e 130 164
e 130 165
e 130 166
e 130 174
e 130 176
e 130 177
e 130 181
e 130 183
e 130 185
e 130 187
e 130 191
e 130 192
e 130 198
e 130 199
e 130 200
e 130 201
e 130 203
e 130 204
e 130 206
e 130 208
e 130 210
e 130 211
e 130 213
e 130 216
e 130 217
e 130 219
e 130 220
e 130 222
e 130 224
e 130 227
e 130 228
e 130 229
e 130 231
e 130 232
e 130 239
e 130 240
e 130 241
e 130 244
e 130 245
e 130 246
e 130 247
e 130 248
e 130 251
e 130 259
e 130 260
e 130 262
e 130 263
e 130 264
e 130 267
e 130 272
e 130 274
e 130 275
e 130 279
e 130 280
e 130 284
e 130 286
e 130 287
e 130 288
e 130 290
e 130 291
e 130 292
e 130 293
e 130 294
e 130 295
e 130 296
e 130 298
e 130 300
e 130 301
e 130 302
e 130 303
e 130 305
e 130 307
e 130 308
e 130 309
e 130 310
e 130 311
e 130 312
e 130 313
e 130 314
e 130 315
e 130 319
e 130 322
e 130 323
e 130 325
e 130 326
e 130 327
e 130 328
e 130 330
e 130 331
e 130 332
e 130 334
e 130 335
e 130 338
e 130 344
e 130 345
e 130 346
e 130 347
e 130 354
e 130 355
e 130 356
e 130 358
e 130 361
e 130 363
e 130 364
e 130 365
e 130 367
e 130 368
e 130 372
e 130 376
e 130 377
e 130 378
e 130 379
e 130 380
e 130 384
e 130 385
e 130 387
e 130 388
e 130 389
e 130 390
e 130 391
e 130 393
e 130 394
e 130 397
e 130 398
e 130 399
e 130 400
e 130 409
e 130 410
e 130 411
e 130 413
e 130 414
e 130 415
e 130 416
e 130 417
e 130 419
e 130 420
e 130 422
e 130 423
e 130 424
e 130 425
e 130 428
e 130 429
e 130 431
e 130 433
e 130 434
e 130 435
e 130 436
e 130 437
e 130 438
e 130 439
e 130 440
e 130 441
e 130 443
e 130 445
e 130 446
e 130 447
e 130 448
e 130 449
e 130 450
e 130 451
e 130 452
e 130 453
e 130 454
e 130 455
e 130 456
e 130 457
e 130 458
e 130 459
e 130 460
e 130 462
e 130 463
e 130 464
e 130 465
e 130 466
e 130 468
e 130 470
e 130 471
e 130 473
e 130 474
e 130 475
e 130 476
e 130 477
e 130 478
e 130 479
e 130 480
e 130 854
e 131 132
e 131 133
e 131 134
e 131 139
e 131 140
e 131 142
e 131 143
e 131 144
e 131 147
e 131 154
e 131 155
e 131 156
e 131 157
e 131 160
e 131 161
e 131 162
e 131 164
e 131 165
e 131 166
e 131 174
e 131 175
e 131 176
e 131 177
e 131 178
e 131 179
e 131 181
e 131 182
e 131 188
e 131 189
e 131 190
e 131 191
e 131 192
e 131 193
e 131 195
e 131 198
e 131 199
e 131 201
e 131 202
e 131 203
e 131 204
e 131 206
e 131 207
e 131 208
e 131 210
e 131 211
e 131 213
e 131 214
e 131 215
e 131 217
e 131 219
e 131 220
e 131 222
e 131 225
e 131 226
e 131 227
e 131 228
e 131 232
e 131 235
e 131 237
e 131 238
e 131 239
e 131 241
e 131 242
e 131 244
e 131 246
e 131 247
e 131 248
e 131 252
e 131 257
e 131 259
e 131 260
e 131 261
e 131 262
e 131 264
e 131 265
e 131 267
e 131 268
e 131 269
e 131 271
e 131 272
e 131 273
e 131 274
e 131 275
e 131 276
e 131 277
e 131 278
e 131 282
e 131 284
e 131 286
e 131 287
e 131 290
e 131 291
e 131 292
e 131 293
e 131 295
e 131 296
e 131 298
e 131 299
e 131 300
e 131 304
e 131 305
e 131 306
e 131 307
e 131 308
e 131 309
e 131 311
e 131 313
e 131 314
e 131 316
e 131 317
e 131 318
e 131 319
e 131 320
e 131 321
e 131 327
e 131 328
e 131 329
e 131 330
e 131 332
e 131 334
e 131 335
e 131 336
e 131 338
e 131 339
e 131 342
e 131 343
e 131 344
e 131 345
e 131 346
e 131 347
e 131 348
e 131 349
e 131 351
e 131 354
e 131 355
e 131 356
e 131 358
e 131 359
e 131 365
e 131 367
e 131 368
e 131 369
e 131 370
e 131 372
e 131 373
e 131 374
e 131 375
e 131 376
e 131 377
e 131 378
e 131 379
e 131 380
e 131 382
e 131 383
e 131 384
e 131 385
e 131 386
e 131 388
e 131 389
e 131 390
e 131 392
e 131 394
e 131 395
e 131 397
e 131 398
e 131 400
e 131 401
e 131 404
e 131 406
e 131 413
e 131 414
e 131 415
e 131 416
e 131 417
e 131 418
e 131 419
e 131 420
e 131 422
e 131 423
e 131 424
e 131 426
e 131 427
e 131 428
e 131 429
e 131 430
e 131 431
e 131 435
e 131 436
e 131 437
e 131 438
e 131 439
e 131 440
e 131 442
e 131 443
e 131 444
e 131 447
e 131 448
e 131 450
e 131 452
e 131 453
e 131 454
e 131 455
e 131 456
e 131 457
e 131 458
e 131 459
e 131 460
e 131 462
e 131 463
e 131 466
e 131 468
e 131 469
e 131 470
e 131 471
e 131 472
e 131 473
e 131 474
e 131 476
e 131 477
e 131 478
e 131 480
e 131 483
e 131 484
e 131 485
e 131 487
e 131 489
e 131 493
e 131 500
e 131 501
e 131 502
e 131 505
e 131 506
e 131 507
e 131 508
e 131 509
e 131 510
e 131 512
e 131 513
e 131 514
e 131 515
e 131 516
e 131 519
e 131 520
e 131 522
e 131 525
e 131 526
e 131 535
e 131 538
e 131 542
e 131 543
e 131 544
e 131 545
e 131 546
e 131 547
e 131 548
e 131 549
e 131 550
e 131 551
e 131 552
e 131 554
e 131 556
e 131 558
e 131 559
e 131 569
e 131 570
e 131 578
e 131 582
e 131 586
e 131 588
e 131 589
e 131 590
e 131 595
e 131 596
e 131 598
e 131 599
e 131 602
e 131 608
e 131 609
e 131 613
e 131 615
e 131 616
e 131 623
e 131 624
e 131 625
e 131 627
e 131 628
e 131 629
e 131 633
e 131 634
e 131 638
e 131 641
e 131 642
e 131 644
e 131 647
e 131 652
e 131 654
e 131 657
e 131 660
e 131 661
e 131 667
e 131 669
e 131 672
e 131 674
e 131 676
e 131 680
e 131 687
e 131 688
e 131 691
e 131 694
e 131 695
e 131 696
e 131 697
e 131 698
e 131 699
e 131 700
e 131 701
e 131 704
e 131 707
e 131 708
e 131 709
e 131 711
e 131 712
e 131 714
e 131 715
e 131 716
e 131 721
e 131 722
e 131 723
e 131 724
e 131 726
e 131 731
e 131 733
e 131 739
e 131 740
e 131 741
e 131 742
e 131 744
e 131 745
e 131 751
e 131 756
e 131 757
e 131 759
e 131 764
e 131 765
e 131 767
e 131 769
e 131 770
e 131 772
e 131 773
e 131 774
e 131 775
e 131 778
e 131 779
e 131 780
e 131 781
e 131 782
e 131 783
e 131 785
e 131 794
e 131 796
e 131 799
e 131 801
e 131 805
e 131 806
e 131 808
e 131 809
e 131 814
e 131 815
e 131 816
e 131 823
e 131 824
e 131 825
e 131 828
e 131 831
e 131 833
e 131 834
e 131 837
e 131 842
e 131 843
e 131 846
e 131 847
e 131 848
e 131 851
e 131 852
e 131 854
e 131 855
e 132 133
e 132 135
e 132 139
e 132 141
e 132 152
e 132 153
e 132 154
e 132 160
e 132 162
e 132 164
e 132 171
e 132 174
e 132 176
e 132 179
e 132 181
e 132 184
e 132 192
e 132 198
e 132 199
e 132 201
e 132 203
e 132 204
e 132 206
e 132 208
e 132 211
e 132 212
e 132 213
e 132 216
e 132 217
e 132 219
e 132 220
e 132 221
e 132 222
e 132 224
e 132 225
e 132 227
e 132 228
e 132 229
e 132 230
e 132 231
e 132 237
e 132 239
e 132 241
e 132 244
e 132 245
e 132 246
e 132 247
e 132 248
e 132 251
e 132 254
e 132 255
e 132 257
e 132 258
e 132 260
e 132 263
e 132 272
e 132 280
e 132 282
e 132 284
e 132 287
e 132 292
e 132 293
e 132 295
e 132 296
e 132 307
e 132 314
e 132 319
e 132 322
e 132 326
e 132 327
e 132 329
e 132 330
e 132 334
e 132 335
e 132 336
e 132 338
e 132 339
e 132 342
e 132 343
e 132 344
e 132 345
e 132 346
e 132 347
e 132 351
e 132 354
e 132 356
e 132 357
e 132 358
e 132 360
e 132 365
e 132 368
e 132 369
e 132 372
e 132 373
e 132 374
e 132 375
e 132 380
e 132 383
e 132 385
e 132 389
e 132 390
e 132 392
e 132 394
e 132 395
e 132 396
e 132 397
e 132 400
e 132 401
e 132 403
e 132 404
e 132 409
e 132 410
e 132 411
e 132 412
e 132 413
e 132 415
e 132 416
e 132 417
e 132 420
e 132 421
e 132 422
e 132 424
e 132 425
e 132 426
e 132 428
e 132 430
e 132 435
e 132 436
e 132 437
e 132 443
e 132 445
e 132 446
e 132 449
e 132 452
e 132 453
e 132 456
e 132 457
e 132 458
e 132 460
e 132 461
e 132 463
e 132 464
e 132 465
e 132 466
e 132 467
e 132 469
e 132 470
e 132 471
e 132 472
e 132 473
e 132 474
e 132 475
e 132 478
e 132 480
e 132 854
e 133 139
e 133 140
e 133 156
e 133 157
e 133 164
e 133 174
e 133 179
e 133 198
e 133 201
e 133 206
e 133 211
e 133 219
e 133 227
e 133 244
e 133 251
e 133 278
e 133 284
e 133 287
e 133 292
e 133 308
e 133 309
e 133 310
e 133 322
e 133 329
e 133 330
e 133 334
e 133 336
e 133 338
e 133 344
e 133 355
e 133 356
e 133 368
e 133 372
e 133 375
e 133 385
e 133 391
e 133 392
e 133 393
e 133 394
e 133 395
e 133 397
e 133 398
e 133 400
e 133 406
e 133 419
e 133 423
e 133 424
e 133 425
e 133 431
e 133 435
e 133 444
e 133 452
e 133 456
e 133 458
e 133 466
e 134 139
e 134 140
e 134 147
e 134 155
e 134 156
e 134 160
e 134 166
e 134 174
e 134 179
e 134 181
e 134 192
e 134 203
e 134 204
e 134 206
e 134 211
e 134 213
e 134 227
e 134 228
e 134 232
e 134 247
e 134 248
e 134 252
e 134 260
e 134 262
e 134 267
e 134 281
e 134 282
e 134 284
e 134 285
e 134 287
e 134 291
e 134 298
e 134 299
e 134 308
e 134 309
e 134 326
e 134 328
e 134 334
e 134 382
e 134 388
e 134 389
e 134 400
e 134 414
e 134 419
e 134 462
e 134 468
e 134 497
e 134 510
e 134 524
e 134 543
e 134 548
e 134 549
e 134 589
e 134 595
e 134 642
e 134 657
e 134 670
e 134 673
e 134 701
e 134 704
e 134 721
e 134 742
e 134 795
e 134 805
e 134 838
e 134 840
e 134 843
e 134 853
e 134 855
e 135 139
e 135 152
e 135 162
e 135 197
e 135 198
e 135 211
e 135 218
e 135 231
e 135 244
e 135 247
e 135 251
e 135 284
e 135 293
e 135 334
e 135 347
e 135 356
e 135 378
e 135 400
e 135 425
e 135 433
e 135 444
e 136 139
e 136 166
e 136 192
e 136 194
e 136 204
e 136 213
e 136 227
e 136 235
e 136 245
e 136 248
e 136 251
e 136 262
e 136 267
e 136 281
e 136 282
e 136 284
e 136 285
e 136 287
e 136 291
e 136 299
e 136 326
e 136 334
e 136 345
e 136 353
e 136 388
e 136 389
e 136 414
e 136 452
e 136 462
e 137 138
e 137 145
e 137 164
e 137 192
e 137 195
e 137 199
e 137 203
e 137 212
e 137 213
e 137 214
e 137 222
e 137 237
e 137 241
e 137 248
e 137 253
e 137 254
e 137 255
e 137 256
e 137 262
e 137 266
e 137 283
e 137 284
e 137 287
e 137 290
e 137 296
e 137 320
e 137 324
e 137 329
e 137 334
e 137 337
e 137 338
e 137 362
e 137 386
e 137 395
e 137 407
e 137 417
e 137 421
e 137 432
e 137 434
e 137 442
e 137 456
e 137 469
e 137 471
e 137 472
e 138 164
e 138 199
e 138 213
e 138 248
e 138 262
e 138 287
e 138 290
e 138 296
e 138 324
e 138 334
e 138 362
e 138 434
e 139 140
e 139 141
e 139 142
e 139 143
e 139 144
e 139 147
e 139 152
e 139 156
e 139 157
e 139 158
e 139 160
e 139 161
e 139 162
e 139 164
e 139 166
e 139 174
e 139 176
e 139 177
e 139 178
e 139 182
e 139 188
e 139 189
e 139 190
e 139 192
e 139 194
e 139 195
e 139 198
e 139 199
e 139 201
e 139 203
e 139 204
e 139 206
e 139 207
e 139 208
e 139 210
e 139 211
e 139 212
e 139 213
e 139 214
e 139 215
e 139 216
e 139 217
e 139 219
e 139 222
e 139 225
e 139 226
e 139 227
e 139 228
e 139 231
e 139 232
e 139 233
e 139 234
e 139 235
e 139 236
e 139 239
e 139 241
e 139 242
e 139 244
e 139 245
e 139 246
e 139 247
e 139 248
e 139 251
e 139 252
e 139 254
e 139 255
e 139 257
e 139 258
e 139 260
e 139 261
e 139 262
e 139 267
e 139 269
e 139 272
e 139 274
e 139 279
e 139 281
e 139 282
e 139 284
e 139 285
e 139 286
e 139 287
e 139 290
e 139 291
e 139 292
e 139 293
e 139 294
e 139 296
e 139 297
e 139 298
e 139 299
e 139 300
e 139 302
e 139 304
e 139 306
e 139 307
e 139 308
e 139 309
e 139 310
e 139 311
e 139 313
e 139 314
e 139 315
e 139 319
e 139 320
e 139 322
e 139 325
e 139 326
e 139 327
e 139 328
e 139 329
e 139 330
e 139 332
e 139 333
e 139 334
e 139 335
e 139 336
e 139 338
e 139 342
e 139 344
e 139 345
e 139 346
e 139 347
e 139 352
e 139 353
e 139 356
e 139 357
e 139 358
e 139 359
e 139 364
e 139 365
e 139 366
e 139 367
e 139 368
e 139 369
e 139 370
e 139 372
e 139 373
e 139 378
e 139 379
e 139 380
e 139 383
e 139 384
e 139 385
e 139 387
e 139 388
e 139 389
e 139 390
e 139 391
e 139 393
e 139 395
e 139 397
e 139 398
e 139 400
e 139 401
e 139 404
e 139 412
e 139 414
e 139 415
e 139 416
e 139 417
e 139 419
e 139 424
e 139 425
e 139 426
e 139 428
e 139 433
e 139 434
e 139 435
e 139 436
e 139 437
e 139 438
e 139 440
e 139 443
e 139 444
e 139 447
e 139 452
e 139 454
e 139 455
e 139 456
e 139 457
e 139 458
e 139 460
e 139 462
e 139 463
e 139 466
e 139 467
e 139 469
e 139 470
e 139 471
e 139 472
e 139 473
e 139 474
e 139 476
e 139 478
e 139 479
e 139 480
e 139 501
e 139 507
e 139 508
e 139 509
e 139 535
e 139 541
e 139 543
e 139 548
e 139 551
e 139 552
e 139 556
e 139 570
e 139 578
e 139 586
e 139 613
e 139 633
e 139 642
e 139 647
e 139 670
e 139 671
e 139 672
e 139 674
e 139 700
e 139 704
e 139 721
e 139 749
e 139 757
e 139 762
e 139 769
e 139 770
e 139 773
e 139 774
e 139 784
e 139 789
e 139 797
e 140 147
e 140 154
e 140 155
e 140 156
e 140 157
e 140 160
e 140 161
e 140 162
e 140 165
e 140 166
e 140 167
e 140 170
e 140 173
e 140 176
e 140 179
e 140 180
e 140 181
e 140 192
e 140 198
e 140 199
e 140 201
e 140 206
e 140 208
e 140 211
e 140 213
e 140 217
e 140 220
e 140 222
e 140 224
e 140 229
e 140 232
e 140 243
e 140 247
e 140 248
e 140 251
e 140 252
e 140 259
e 140 260
e 140 261
e 140 262
e 140 263
e 140 270
e 140 274
e 140 279
e 140 280
e 140 282
e 140 284
e 140 287
e 140 288
e 140 290
e 140 291
e 140 296
e 140 298
e 140 299
e 140 307
e 140 308
e 140 309
e 140 310
e 140 312
e 140 314
e 140 322
e 140 323
e 140 324
e 140 328
e 140 330
e 140 334
e 140 342
e 140 344
e 140 346
e 140 354
e 140 358
e 140 361
e 140 364
e 140 365
e 140 368
e 140 372
e 140 376
e 140 380
e 140 382
e 140 385
e 140 387
e 140 388
e 140 391
e 140 393
e 140 394
e 140 398
e 140 400
e 140 414
e 140 415
e 140 417
e 140 419
e 140 420
e 140 425
e 140 428
e 140 429
e 140 431
e 140 433
e 140 437
e 140 441
e 140 448
e 140 449
e 140 457
e 140 459
e 140 464
e 140 465
e 140 468
e 140 473
e 141 199
e 141 216
e 141 219
e 141 227
e 141 244
e 141 284
e 141 287
e 141 319
e 141 334
e 141 345
e 141 400
e 141 417
e 141 424
e 141 435
e 141 452
e 141 460
e 141 463
e 142 143
e 142 157
e 142 174
e 142 192
e 142 201
e 142 202
e 142 204
e 142 206
e 142 211
e 142 220
e 142 227
e 142 235
e 142 236
e 142 246
e 142 248
e 142 251
e 142 261
e 142 264
e 142 280
e 142 287
e 142 293
e 142 302
e 142 319
e 142 321
e 142 332
e 142 338
e 142 342
e 142 344
e 142 356
e 142 367
e 142 369
e 142 370
e 142 372
e 142 388
e 142 393
e 142 394
e 142 396
e 142 400
e 142 417
e 142 426
e 142 427
e 142 435
e 142 443
e 142 444
e 142 447
e 142 452
e 142 454
e 142 457
e 142 459
e 142 484
e 142 487
e 142 489
e 142 496
e 142 505
e 142 508
e 142 515
e 142 516
e 142 535
e 142 538
e 142 543
e 142 548
e 142 550
e 142 552
e 142 566
e 142 569
e 142 570
e 142 578
e 142 588
e 142 589
e 142 595
e 142 615
e 142 616
e 142 623
e 142 624
e 142 625
e 142 626
e 142 627
e 142 641
e 142 642
e 142 647
e 142 661
e 142 695
e 142 703
e 142 704
e 142 707
e 142 737
e 142 739
e 142 740
e 142 741
e 142 742
e 142 745
e 142 751
e 142 753
e 142 757
e 142 759
e 142 761
e 142 764
e 142 768
e 142 769
e 142 773
e 142 776
e 142 778
e 142 781
e 142 782
e 142 787
e 142 794
e 142 814
e 142 816
e 142 825
e 142 827
e 142 828
e 142 831
e 142 833
e 143 144
e 143 157
e 143 161
e 143 164
e 143 166
e 143 174
e 143 176
e 143 192
e 143 202
e 143 206
e 143 211
e 143 213
e 143 220
e 143 225
e 143 228
e 143 244
e 143 246
e 143 255
e 143 257
e 143 260
e 143 264
e 143 273
e 143 274
e 143 278
e 143 280
e 143 287
e 143 289
e 143 293
e 143 306
e 143 311
e 143 313
e 143 317
e 143 318
e 143 321
e 143 335
e 143 338
e 143 358
e 143 359
e 143 361
e 143 364
e 143 366
e 143 372
e 143 375
e 143 379
e 143 380
e 143 384
e 143 385
e 143 389
e 143 390
e 143 393
e 143 394
e 143 396
e 143 400
e 143 417
e 143 426
e 143 437
e 143 443
e 143 448
e 143 453
e 143 456
e 143 457
e 143 459
e 143 460
e 143 466
e 143 471
e 143 474
e 143 478
e 143 483
e 143 484
e 143 487
e 143 489
e 143 493
e 143 495
e 143 496
e 143 497
e 143 501
e 143 502
e 143 504
e 143 505
e 143 508
e 143 509
e 143 513
e 143 514
e 143 515
e 143 516
e 143 520
e 143 522
e 143 526
e 143 529
e 143 530
e 143 531
e 143 532
e 143 535
e 143 538
e 143 543
e 143 548
e 143 549
e 143 550
e 143 551
e 143 552
e 143 554
e 143 558
e 143 559
e 143 566
e 143 569
e 143 570
e 143 576
e 143 578
e 143 579
e 143 583
e 143 584
e 143 589
e 143 595
e 143 600
e 143 610
e 143 613
e 143 615
e 143 616
e 143 622
e 143 623
e 143 624
e 143 625
e 143 626
e 143 627
e 143 628
e 143 636
e 143 638
e 143 641
e 143 642
e 143 652
e 143 653
e 143 657
e 143 658
e 143 668
e 143 672
e 143 675
e 143 677
e 143 678
e 143 679
e 143 681
e 143 682
e 143 683
e 143 684
e 143 686
e 143 688
e 143 689
e 143 690
e 143 695
e 143 697
e 143 699
e 143 701
e 143 703
e 143 704
e 143 707
e 143 709
e 143 712
e 143 713
e 143 717
e 143 721
e 143 727
e 143 730
e 143 731
e 143 732
e 143 733
e 143 734
e 143 737
e 143 738
e 143 740
e 143 741
e 143 742
e 143 744
e 143 745
e 143 747
e 143 748
e 143 751
e 143 752
e 143 753
e 143 754
e 143 757
e 143 759
e 143 761
e 143 764
e 143 768
e 143 769
e 143 770
e 143 771
e 143 772
e 143 773
e 143 775
e 143 776
e 143 777
e 143 781
e 143 782
e 143 787
e 143 788
e 143 794
e 143 796
e 143 799
e 143 800
e 143 801
e 143 803
e 143 806
e 143 807
e 143 808
e 143 810
e 143 811
e 143 812
e 143 814
e 143 815
e 143 818
e 143 824
e 143 825
e 143 826
e 143 827
e 143 828
e 143 829
e 143 830
e 143 831
e 143 832
e 143 833
e 143 834
e 143 835
e 143 840
e 143 841
e 143 842
e 143 843
e 143 847
e 143 850
e 143 853
e 144 161
e 144 164
e 144 166
e 144 211
e 144 213
e 144 228
e 144 287
e 144 311
e 144 335
e 144 372
e 144 379
e 144 380
e 144 384
e 144 389
e 144 390
e 144 456
e 144 457
e 144 460
e 144 466
e 144 471
e 144 474
e 145 192
e 145 203
e 145 212
e 145 237
e 145 253
e 145 255
e 145 256
e 145 283
e 145 284
e 145 290
e 145 320
e 145 329
e 145 337
e 145 338
e 145 386
e 145 395
e 145 407
e 145 417
e 145 432
e 145 442
e 145 456
e 145 469
e 145 471
e 145 472
e 146 162
e 146 176
e 146 192
e 146 196
e 146 218
e 146 225
e 146 246
e 146 251
e 146 272
e 146 279
e 146 287
e 146 292
e 146 293
e 146 301
e 146 315
e 146 326
e 146 330
e 146 340
e 146 344
e 146 368
e 146 372
e 146 375
e 146 402
e 146 405
e 146 433
e 146 452
e 146 453
e 146 462
e 146 475
e 146 476
e 146 477
e 146 479
e 147 155
e 147 157
e 147 160
e 147 166
e 147 181
e 147 192
e 147 201
e 147 203
e 147 204
e 147 208
e 147 211
e 147 213
e 147 227
e 147 228
e 147 232
e 147 247
e 147 248
e 147 259
e 147 260
e 147 262
e 147 267
e 147 274
e 147 281
e 147 282
e 147 284
e 147 285
e 147 287
e 147 291
e 147 298
e 147 299
e 147 307
e 147 308
e 147 309
e 147 326
e 147 328
e 147 334
e 147 344
e 147 358
e 147 376
e 147 380
e 147 388
e 147 389
e 147 414
e 147 415
e 147 419
e 147 462
e 147 468
e 147 473
e 148 153
e 148 154
e 148 164
e 148 166
e 148 176
e 148 199
e 148 202
e 148 203
e 148 204
e 148 205
e 148 211
e 148 219
e 148 220
e 148 221
e 148 222
e 148 229
e 148 233
e 148 243
e 148 245
e 148 246
e 148 248
e 148 251
e 148 263
e 148 270
e 148 280
e 148 282
e 148 285
e 148 287
e 148 296
e 148 297
e 148 299
e 148 310
e 148 312
e 148 324
e 148 334
e 148 335
e 148 338
e 148 341
e 148 344
e 148 346
e 148 352
e 148 353
e 148 354
e 148 360
e 148 361
e 148 374
e 148 384
e 148 388
e 148 400
e 148 402
e 148 408
e 148 414
e 148 420
e 148 425
e 148 447
e 148 453
e 148 454
e 148 462
e 148 466
e 148 470
e 148 475
e 149 165
e 149 166
e 149 183
e 149 186
e 149 198
e 149 199
e 149 203
e 149 204
e 149 224
e 149 234
e 149 260
e 149 263
e 149 264
e 149 287
e 149 292
e 149 294
e 149 300
e 149 302
e 149 303
e 149 314
e 149 330
e 149 331
e 149 342
e 149 356
e 149 394
e 149 417
e 149 440
e 149 441
e 149 472
e 150 174
e 150 189
e 150 207
e 150 212
e 150 222
e 150 239
e 150 284
e 150 314
e 150 326
e 150 347
e 150 357
e 150 372
e 150 376
e 150 380
e 150 383
e 150 390
e 150 412
e 150 426
e 150 467
e 150 479
e 150 480
e 151 195
e 151 203
e 151 212
e 151 266
e 151 287
e 151 407
e 151 421
e 151 474
e 152 157
e 152 162
e 152 166
e 152 197
e 152 198
e 152 200
e 152 211
e 152 217
e 152 220
e 152 231
e 152 244
e 152 247
e 152 251
e 152 264
e 152 284
e 152 290
e 152 292
e 152 296
e 152 300
e 152 302
e 152 303
e 152 327
e 152 330
e 152 334
e 152 347
e 152 355
e 152 363
e 152 368
e 152 376
e 152 399
e 152 400
e 152 425
e 152 429
e 152 431
e 153 157
e 153 161
e 153 164
e 153 166
e 153 174
e 153 176
e 153 181
e 153 182
e 153 189
e 153 192
e 153 199
e 153 202
e 153 203
e 153 204
e 153 205
e 153 206
e 153 208
e 153 210
e 153 211
e 153 213
e 153 217
e 153 219
e 153 223
e 153 225
e 153 227
e 153 229
e 153 236
e 153 242
e 153 244
e 153 245
e 153 246
e 153 248
e 153 251
e 153 263
e 153 265
e 153 267
e 153 269
e 153 274
e 153 280
e 153 284
e 153 287
e 153 290
e 153 296
e 153 297
e 153 300
e 153 313
e 153 316
e 153 318
e 153 319
e 153 322
e 153 327
e 153 328
e 153 330
e 153 334
e 153 335
e 153 336
e 153 338
e 153 339
e 153 344
e 153 345
e 153 347
e 153 348
e 153 350
e 153 352
e 153 354
e 153 356
e 153 358
e 153 365
e 153 367
e 153 368
e 153 371
e 153 372
e 153 376
e 153 379
e 153 381
e 153 382
e 153 384
e 153 385
e 153 388
e 153 390
e 153 392
e 153 393
e 153 394
e 153 395
e 153 397
e 153 403
e 153 409
e 153 410
e 153 411
e 153 417
e 153 420
e 153 422
e 153 424
e 153 432
e 153 433
e 153 435
e 153 437
e 153 445
e 153 446
e 153 447
e 153 448
e 153 451
e 153 453
e 153 454
e 153 456
e 153 459
e 153 461
e 153 466
e 153 468
e 153 470
e 154 162
e 154 164
e 154 165
e 154 166
e 154 167
e 154 170
e 154 173
e 154 174
e 154 176
e 154 180
e 154 181
e 154 184
e 154 191
e 154 192
e 154 198
e 154 199
e 154 203
e 154 204
e 154 206
e 154 210
e 154 211
e 154 213
e 154 217
e 154 220
e 154 221
e 154 222
e 154 225
e 154 227
e 154 228
e 154 229
e 154 230
e 154 233
e 154 241
e 154 243
e 154 245
e 154 246
e 154 248
e 154 257
e 154 260
e 154 263
e 154 270
e 154 272
e 154 275
e 154 280
e 154 282
e 154 286
e 154 287
e 154 290
e 154 293
e 154 296
e 154 299
e 154 300
e 154 310
e 154 312
e 154 314
e 154 323
e 154 324
e 154 327
e 154 329
e 154 330
e 154 334
e 154 335
e 154 342
e 154 344
e 154 346
e 154 347
e 154 353
e 154 354
e 154 358
e 154 360
e 154 361
e 154 364
e 154 368
e 154 372
e 154 377
e 154 380
e 154 388
e 154 389
e 154 390
e 154 396
e 154 401
e 154 408
e 154 413
e 154 415
e 154 416
e 154 417
e 154 420
e 154 421
e 154 423
e 154 429
e 154 431
e 154 441
e 154 443
e 154 447
e 154 449
e 154 450
e 154 452
e 154 453
e 154 456
e 154 457
e 154 458
e 154 461
e 154 462
e 154 464
e 154 465
e 154 472
e 154 473
e 154 475
e 154 477
e 154 478
e 154 480
e 154 854
e 155 156
e 155 157
e 155 160
e 155 166
e 155 179
e 155 181
e 155 201
e 155 208
e 155 211
e 155 213
e 155 232
e 155 247
e 155 252
e 155 259
e 155 260
e 155 262
e 155 274
e 155 282
e 155 284
e 155 287
e 155 291
e 155 298
e 155 299
e 155 307
e 155 308
e 155 309
e 155 328
e 155 334
e 155 344
e 155 358
e 155 376
e 155 380
e 155 382
e 155 414
e 155 415
e 155 419
e 155 468
e 155 473
e 156 157
e 156 166
e 156 179
e 156 181
e 156 192
e 156 198
e 156 201
e 156 211
e 156 213
e 156 232
e 156 247
e 156 251
e 156 252
e 156 260
e 156 262
e 156 279
e 156 282
e 156 284
e 156 287
e 156 298
e 156 299
e 156 308
e 156 309
e 156 310
e 156 322
e 156 328
e 156 330
e 156 334
e 156 365
e 156 382
e 156 385
e 156 387
e 156 391
e 156 393
e 156 398
e 156 400
e 156 419
e 156 425
e 156 428
e 156 433
e 156 468
e 157 160
e 157 161
e 157 162
e 157 165
e 157 166
e 157 172
e 157 173
e 157 174
e 157 181
e 157 182
e 157 183
e 157 192
e 157 195
e 157 197
e 157 198
e 157 199
e 157 200
e 157 201
e 157 202
e 157 203
e 157 206
e 157 208
e 157 210
e 157 211
e 157 213
e 157 215
e 157 217
e 157 219
e 157 220
e 157 223
e 157 224
e 157 225
e 157 227
e 157 231
e 157 232
e 157 241
e 157 244
e 157 246
e 157 247
e 157 249
e 157 250
e 157 251
e 157 252
e 157 255
e 157 257
e 157 259
e 157 260
e 157 262
e 157 263
e 157 264
e 157 265
e 157 269
e 157 274
e 157 276
e 157 278
e 157 279
e 157 280
e 157 282
e 157 284
e 157 287
e 157 290
e 157 291
e 157 292
e 157 293
e 157 294
e 157 296
e 157 298
e 157 300
e 157 302
e 157 303
e 157 306
e 157 307
e 157 308
e 157 309
e 157 310
e 157 313
e 157 314
e 157 316
e 157 317
e 157 319
e 157 322
e 157 326
e 157 327
e 157 328
e 157 329
e 157 330
e 157 331
e 157 334
e 157 338
e 157 339
e 157 344
e 157 348
e 157 350
e 157 354
e 157 355
e 157 356
e 157 358
e 157 359
e 157 361
e 157 363
e 157 364
e 157 365
e 157 366
e 157 368
e 157 376
e 157 380
e 157 381
e 157 383
e 157 385
e 157 386
e 157 387
e 157 389
e 157 391
e 157 393
e 157 394
e 157 395
e 157 398
e 157 399
e 157 400
e 157 406
e 157 407
e 157 414
e 157 415
e 157 416
e 157 417
e 157 419
e 157 422
e 157 423
e 157 424
e 157 425
e 157 427
e 157 428
e 157 429
e 157 431
e 157 433
e 157 436
e 157 440
e 157 441
e 157 442
e 157 443
e 157 444
e 157 448
e 157 454
e 157 456
e 157 462
e 157 464
e 157 466
e 157 468
e 157 471
e 157 473
e 157 484
e 157 485
e 157 487
e 157 489
e 157 493
e 157 496
e 157 499
e 157 502
e 157 505
e 157 508
e 157 509
e 157 513
e 157 514
e 157 515
e 157 516
e 157 522
e 157 526
e 157 529
e 157 531
e 157 535
e 157 538
e 157 543
e 157 548
e 157 549
e 157 550
e 157 551
e 157 552
e 157 565
e 157 569
e 157 570
e 157 578
e 157 580
e 157 581
e 157 588
e 157 595
e 157 611
e 157 616
e 157 622
e 157 623
e 157 624
e 157 627
e 157 628
e 157 629
e 157 635
e 157 636
e 157 638
e 157 642
e 157 647
e 157 653
e 157 657
e 157 661
e 157 663
e 157 667
e 157 668
e 157 672
e 157 673
e 157 674
e 157 678
e 157 679
e 157 686
e 157 687
e 157 688
e 157 690
e 157 694
e 157 696
e 157 697
e 157 699
e 157 703
e 157 704
e 157 707
e 157 709
e 157 712
e 157 713
e 157 721
e 157 722
e 157 727
e 157 730
e 157 734
e 157 737
e 157 738
e 157 740
e 157 741
e 157 742
e 157 744
e 157 745
e 157 747
e 157 751
e 157 752
e 157 753
e 157 754
e 157 757
e 157 764
e 157 766
e 157 767
e 157 768
e 157 769
e 157 770
e 157 771
e 157 776
e 157 778
e 157 782
e 157 787
e 157 788
e 157 794
e 157 796
e 157 799
e 157 801
e 157 803
e 157 806
e 157 808
e 157 810
e 157 811
e 157 812
e 157 813
e 157 814
e 157 818
e 157 821
e 157 823
e 157 824
e 157 825
e 157 826
e 157 827
e 157 828
e 157 833
e 157 834
e 157 837
e 157 841
e 157 847
e 157 848
e 157 850
e 157 854
e 158 166
e 158 174
e 158 177
e 158 192
e 158 201
e 158 206
e 158 211
e 158 213
e 158 220
e 158 227
e 158 228
e 158 241
e 158 251
e 158 262
e 158 265
e 158 274
e 158 280
e 158 302
e 158 313
e 158 319
e 158 325
e 158 330
e 158 332
e 158 338
e 158 346
e 158 356
e 158 367
e 158 368
e 158 380
e 158 388
e 158 394
e 158 400
e 158 428
e 158 433
e 158 434
e 158 435
e 158 452
e 158 455
e 158 470
e 158 484
e 158 501
e 158 502
e 158 516
e 158 552
e 158 612
e 158 614
e 158 615
e 158 616
e 158 618
e 158 621
e 158 623
e 158 627
e 158 686
e 158 687
e 158 740
e 158 744
e 158 755
e 158 774
e 158 790
e 158 799
e 159 160
e 159 161
e 159 163
e 159 164
e 159 166
e 159 168
e 159 169
e 159 172
e 159 174
e 159 175
e 159 176
e 159 206
e 159 211
e 159 213
e 159 248
e 159 261
e 159 262
e 159 280
e 159 312
e 159 328
e 159 334
e 159 346
e 159 353
e 159 361
e 159 376
e 159 408
e 159 417
e 159 419
e 160 161
e 160 163
e 160 164
e 160 165
e 160 166
e 160 168
e 160 169
e 160 172
e 160 174
e 160 175
e 160 176
e 160 181
e 160 192
e 160 198
e 160 199
e 160 201
e 160 203
e 160 204
e 160 206
e 160 208
e 160 211
e 160 213
e 160 217
e 160 220
e 160 222
e 160 227
e 160 228
e 160 232
e 160 239
e 160 241
e 160 246
e 160 247
e 160 248
e 160 251
e 160 254
e 160 255
e 160 257
e 160 258
e 160 259
e 160 260
e 160 261
e 160 262
e 160 267
e 160 274
e 160 280
e 160 281
e 160 282
e 160 284
e 160 285
e 160 287
e 160 290
e 160 291
e 160 293
e 160 296
e 160 298
e 160 299
e 160 307
e 160 308
e 160 309
e 160 312
e 160 314
e 160 326
e 160 327
e 160 328
e 160 330
e 160 334
e 160 344
e 160 346
e 160 347
e 160 353
e 160 355
e 160 356
e 160 358
e 160 361
e 160 364
e 160 368
e 160 372
e 160 373
e 160 376
e 160 380
e 160 388
e 160 389
e 160 394
e 160 400
e 160 404
e 160 408
e 160 414
e 160 415
e 160 417
e 160 419
e 160 429
e 160 431
e 160 436
e 160 437
e 160 440
e 160 441
e 160 462
e 160 467
e 160 468
e 160 473
e 160 474
e 160 478
e 160 480
e 161 163
e 161 164
e 161 166
e 161 168
e 161 169
e 161 172
e 161 174
e 161 175
e 161 176
e 161 180
e 161 181
e 161 189
e 161 192
e 161 198
e 161 199
e 161 201
e 161 202
e 161 203
e 161 204
e 161 206
e 161 208
e 161 211
e 161 213
e 161 220
e 161 222
e 161 224
e 161 225
e 161 227
e 161 228
e 161 230
e 161 236
e 161 242
e 161 244
e 161 246
e 161 248
e 161 251
e 161 257
e 161 260
e 161 261
e 161 262
e 161 265
e 161 267
e 161 269
e 161 272
e 161 274
e 161 276
e 161 280
e 161 283
e 161 287
e 161 288
e 161 289
e 161 290
e 161 292
e 161 293
e 161 296
e 161 297
e 161 300
e 161 306
e 161 311
e 161 312
e 161 313
e 161 314
e 161 318
e 161 319
e 161 322
e 161 323
e 161 325
e 161 327
e 161 328
e 161 330
e 161 334
e 161 335
e 161 336
e 161 338
e 161 339
e 161 342
e 161 346
e 161 347
e 161 350
e 161 352
e 161 353
e 161 354
e 161 356
e 161 358
e 161 359
e 161 361
e 161 362
e 161 364
e 161 365
e 161 367
e 161 368
e 161 371
e 161 372
e 161 376
e 161 377
e 161 379
e 161 380
e 161 381
e 161 382
e 161 384
e 161 385
e 161 386
e 161 388
e 161 389
e 161 390
e 161 392
e 161 393
e 161 394
e 161 395
e 161 396
e 161 397
e 161 401
e 161 403
e 161 408
e 161 415
e 161 417
e 161 419
e 161 420
e 161 421
e 161 432
e 161 437
e 161 438
e 161 443
e 161 448
e 161 449
e 161 451
e 161 452
e 161 453
e 161 454
e 161 456
e 161 457
e 161 458
e 161 459
e 161 460
e 161 461
e 161 462
e 161 464
e 161 465
e 161 466
e 161 468
e 161 469
e 161 470
e 161 471
e 161 473
e 161 474
e 161 478
e 161 480
e 161 484
e 161 485
e 161 493
e 161 495
e 161 505
e 161 508
e 161 509
e 161 513
e 161 529
e 161 538
e 161 548
e 161 550
e 161 551
e 161 552
e 161 578
e 161 579
e 161 606
e 161 628
e 161 647
e 161 657
e 161 658
e 161 667
e 161 668
e 161 677
e 161 688
e 161 691
e 161 694
e 161 697
e 161 699
e 161 703
e 161 707
e 161 709
e 161 730
e 161 732
e 161 740
e 161 741
e 161 742
e 161 744
e 161 748
e 161 753
e 161 759
e 161 801
e 161 803
e 161 808
e 161 811
e 161 840
e 161 848
e 161 854
e 162 164
e 162 165
e 162 166
e 162 167
e 162 170
e 162 173
e 162 174
e 162 176
e 162 177
e 162 178
e 162 180
e 162 181
e 162 184
e 162 185
e 162 187
e 162 189
e 162 192
e 162 196
e 162 198
e 162 199
e 162 203
e 162 204
e 162 206
e 162 210
e 162 211
e 162 212
e 162 213
e 162 215
e 162 217
e 162 218
e 162 219
e 162 220
e 162 222
e 162 225
e 162 227
e 162 228
e 162 229
e 162 230
e 162 231
e 162 235
e 162 237
e 162 238
e 162 239
e 162 240
e 162 241
e 162 242
e 162 244
e 162 245
e 162 246
e 162 247
e 162 251
e 162 260
e 162 262
e 162 263
e 162 265
e 162 267
e 162 270
e 162 272
e 162 275
e 162 278
e 162 279
e 162 280
e 162 282
e 162 284
e 162 285
e 162 287
e 162 290
e 162 291
e 162 292
e 162 293
e 162 295
e 162 296
e 162 300
e 162 301
e 162 304
e 162 305
e 162 306
e 162 307
e 162 310
e 162 314
e 162 315
e 162 319
e 162 322
e 162 323
e 162 324
e 162 326
e 162 328
e 162 329
e 162 330
e 162 331
e 162 333
e 162 334
e 162 336
e 162 338
e 162 339
e 162 340
e 162 341
e 162 342
e 162 343
e 162 344
e 162 345
e 162 346
e 162 347
e 162 350
e 162 351
e 162 353
e 162 354
e 162 356
e 162 359
e 162 363
e 162 364
e 162 368
e 162 369
e 162 372
e 162 374
e 162 375
e 162 376
e 162 377
e 162 378
e 162 380
e 162 381
e 162 387
e 162 388
e 162 389
e 162 390
e 162 391
e 162 393
e 162 394
e 162 395
e 162 398
e 162 399
e 162 400
e 162 402
e 162 405
e 162 406
e 162 408
e 162 413
e 162 416
e 162 420
e 162 421
e 162 422
e 162 423
e 162 424
e 162 425
e 162 429
e 162 430
e 162 431
e 162 433
e 162 439
e 162 441
e 162 444
e 162 447
e 162 450
e 162 452
e 162 453
e 162 457
e 162 462
e 162 463
e 162 464
e 162 469
e 162 471
e 162 472
e 162 473
e 162 474
e 162 475
e 162 476
e 162 477
e 162 478
e 162 479
e 162 480
e 162 854
e 163 164
e 163 166
e 163 168
e 163 169
e 163 172
e 163 174
e 163 175
e 163 176
e 163 206
e 163 211
e 163 213
e 163 248
e 163 261
e 163 262
e 163 280
e 163 312
e 163 328
e 163 334
e 163 346
e 163 353
e 163 361
e 163 376
e 163 408
e 163 417
e 163 419
e 164 166
e 164 168
e 164 169
e 164 171
e 164 172
e 164 174
e 164 175
e 164 176
e 164 177
e 164 179
e 164 180
e 164 181
e 164 184
e 164 192
e 164 194
e 164 196
e 164 198
e 164 199
e 164 201
e 164 202
e 164 203
e 164 204
e 164 205
e 164 206
e 164 211
e 164 213
e 164 219
e 164 220
e 164 221
e 164 222
e 164 224
e 164 225
e 164 228
e 164 229
e 164 230
e 164 232
e 164 233
e 164 236
e 164 243
e 164 244
e 164 245
e 164 246
e 164 247
e 164 248
e 164 251
e 164 257
e 164 260
e 164 261
e 164 262
e 164 263
e 164 267
e 164 270
e 164 272
e 164 274
e 164 279
e 164 280
e 164 282
e 164 283
e 164 284
e 164 287
e 164 290
e 164 292
e 164 293
e 164 296
e 164 297
e 164 299
e 164 300
e 164 301
e 164 302
e 164 310
e 164 311
e 164 312
e 164 313
e 164 314
e 164 315
e 164 318
e 164 322
e 164 324
e 164 325
e 164 326
e 164 327
e 164 328
e 164 329
e 164 332
e 164 333
e 164 334
e 164 335
e 164 336
e 164 338
e 164 341
e 164 342
e 164 344
e 164 345
e 164 346
e 164 347
e 164 351
e 164 352
e 164 353
e 164 354
e 164 356
e 164 358
e 164 360
e 164 361
e 164 362
e 164 365
e 164 368
e 164 371
e 164 372
e 164 374
e 164 375
e 164 376
e 164 377
e 164 379
e 164 380
e 164 382
e 164 384
e 164 385
e 164 386
e 164 388
e 164 389
e 164 390
e 164 392
e 164 394
e 164 395
e 164 396
e 164 397
e 164 398
e 164 400
e 164 401
e 164 402
e 164 403
e 164 405
e 164 408
e 164 414
e 164 417
e 164 419
e 164 420
e 164 421
e 164 422
e 164 425
e 164 428
e 164 433
e 164 434
e 164 435
e 164 438
e 164 445
e 164 446
e 164 447
e 164 448
e 164 449
e 164 451
e 164 452
e 164 453
e 164 454
e 164 455
e 164 456
e 164 457
e 164 458
e 164 459
e 164 460
e 164 461
e 164 462
e 164 464
e 164 465
e 164 466
e 164 468
e 164 469
e 164 470
e 164 471
e 164 474
e 164 475
e 164 476
e 164 477
e 164 478
e 164 479
e 164 480
e 164 854
e 165 166
e 165 167
e 165 170
e 165 173
e 165 174
e 165 176
e 165 177
e 165 178
e 165 180
e 165 182
e 165 183
e 165 189
e 165 198
e 165 199
e 165 203
e 165 204
e 165 206
e 165 208
e 165 210
e 165 211
e 165 212
e 165 213
e 165 215
e 165 217
e 165 220
e 165 222
e 165 224
e 165 225
e 165 227
e 165 229
e 165 234
e 165 235
e 165 238
e 165 241
e 165 242
e 165 243
e 165 244
e 165 246
e 165 251
e 165 259
e 165 260
e 165 261
e 165 262
e 165 263
e 165 264
e 165 270
e 165 287
e 165 290
e 165 292
e 165 294
e 165 296
e 165 298
e 165 300
e 165 302
e 165 303
e 165 304
e 165 305
e 165 306
e 165 307
e 165 308
e 165 309
e 165 314
e 165 319
e 165 323
e 165 324
e 165 327
e 165 328
e 165 330
e 165 331
e 165 342
e 165 347
e 165 354
e 165 355
e 165 356
e 165 364
e 165 368
e 165 372
e 165 376
e 165 378
e 165 380
e 165 388
e 165 394
e 165 406
e 165 414
e 165 417
e 165 419
e 165 420
e 165 424
e 165 429
e 165 431
e 165 439
e 165 440
e 165 441
e 165 444
e 165 453
e 165 457
e 165 472
e 166 167
e 166 168
e 166 169
e 166 170
e 166 172
e 166 173
e 166 174
e 166 175
e 166 176
e 166 177
e 166 178
e 166 179
e 166 180
e 166 181
e 166 182
e 166 183
e 166 186
e 166 188
e 166 189
e 166 192
e 166 194
e 166 197
e 166 198
e 166 199
e 166 200
e 166 201
e 166 202
e 166 203
e 166 204
e 166 205
e 166 206
e 166 207
e 166 208
e 166 211
e 166 213
e 166 215
e 166 217
e 166 219
e 166 220
e 166 222
e 166 224
e 166 225
e 166 226
e 166 227
e 166 228
e 166 229
e 166 231
e 166 232
e 166 234
e 166 235
e 166 236
e 166 241
e 166 242
e 166 243
e 166 244
e 166 245
e 166 246
e 166 247
e 166 248
e 166 251
e 166 252
e 166 259
e 166 260
e 166 261
e 166 262
e 166 263
e 166 264
e 166 265
e 166 267
e 166 269
e 166 270
e 166 272
e 166 274
e 166 279
e 166 280
e 166 281
e 166 282
e 166 283
e 166 284
e 166 285
e 166 286
e 166 287
e 166 290
e 166 291
e 166 292
e 166 293
e 166 294
e 166 296
e 166 297
e 166 298
e 166 299
e 166 300
e 166 302
e 166 303
e 166 304
e 166 306
e 166 307
e 166 308
e 166 309
e 166 311
e 166 312
e 166 313
e 166 314
e 166 318
e 166 319
e 166 323
e 166 324
e 166 325
e 166 326
e 166 327
e 166 328
e 166 329
e 166 330
e 166 331
e 166 332
e 166 334
e 166 335
e 166 336
e 166 338
e 166 339
e 166 342
e 166 344
e 166 345
e 166 346
e 166 347
e 166 350
e 166 352
e 166 353
e 166 354
e 166 355
e 166 356
e 166 358
e 166 361
e 166 362
e 166 363
e 166 364
e 166 365
e 166 367
e 166 368
e 166 371
e 166 372
e 166 376
e 166 377
e 166 378
e 166 379
e 166 380
e 166 381
e 166 382
e 166 383
e 166 384
e 166 385
e 166 388
e 166 389
e 166 390
e 166 392
e 166 394
e 166 395
e 166 396
e 166 397
e 166 399
e 166 403
e 166 408
e 166 414
e 166 415
e 166 417
e 166 419
e 166 420
e 166 425
e 166 426
e 166 428
e 166 429
e 166 431
e 166 432
e 166 433
e 166 434
e 166 435
e 166 438
e 166 440
e 166 441
e 166 443
e 166 447
e 166 452
e 166 454
e 166 455
e 166 456
e 166 457
e 166 458
e 166 459
e 166 460
e 166 461
e 166 462
e 166 466
e 166 468
e 166 470
e 166 471
e 166 473
e 166 474
e 166 476
e 167 170
e 167 173
e 167 176
e 167 180
e 167 199
e 167 211
e 167 220
e 167 222
e 167 229
e 167 263
e 167 270
e 167 290
e 167 314
e 167 323
e 167 324
e 167 342
e 167 354
e 167 364
e 167 372
e 167 388
e 167 429
e 167 431
e 167 441
e 167 457
e 168 169
e 168 172
e 168 174
e 168 175
e 168 176
e 168 206
e 168 211
e 168 213
e 168 248
e 168 261
e 168 262
e 168 280
e 168 312
e 168 328
e 168 334
e 168 346
e 168 353
e 168 361
e 168 376
e 168 408
e 168 417
e 168 419
e 169 172
e 169 174
e 169 175
e 169 176
e 169 206
e 169 211
e 169 213
e 169 248
e 169 261
e 169 262
e 169 280
e 169 312
e 169 328
e 169 334
e 169 346
e 169 353
e 169 361
e 169 376
e 169 408
e 169 417
e 169 419
e 170 173
e 170 176
e 170 180
e 170 199
e 170 211
e 170 220
e 170 222
e 170 229
e 170 263
e 170 270
e 170 290
e 170 314
e 170 323
e 170 324
e 170 342
e 170 354
e 170 364
e 170 372
e 170 388
e 170 429
e 170 431
e 170 441
e 170 457
e 171 174
e 171 176
e 171 181
e 171 184
e 171 204
e 171 206
e 171 220
e 171 221
e 171 224
e 171 244
e 171 248
e 171 251
e 171 292
e 171 293
e 171 334
e 171 347
e 171 354
e 171 360
e 171 368
e 171 394
e 171 403
e 171 417
e 171 422
e 171 445
e 171 446
e 171 453
e 171 456
e 171 458
e 171 461
e 171 475
e 171 854
e 172 174
e 172 175
e 172 176
e 172 206
e 172 211
e 172 213
e 172 241
e 172 248
e 172 261
e 172 262
e 172 280
e 172 312
e 172 328
e 172 334
e 172 338
e 172 346
e 172 353
e 172 358
e 172 361
e 172 376
e 172 393
e 172 408
e 172 417
e 172 419
e 172 427
e 172 443
e 172 454
e 172 484
e 172 489
e 172 499
e 172 515
e 172 535
e 172 543
e 172 548
e 172 549
e 172 595
e 172 647
e 172 667
e 172 668
e 172 679
e 172 686
e 172 751
e 172 757
e 172 766
e 172 767
e 172 778
e 172 814
e 172 821
e 172 823
e 172 825
e 172 826
e 173 174
e 173 176
e 173 180
e 173 191
e 173 192
e 173 195
e 173 199
e 173 211
e 173 213
e 173 215
e 173 220
e 173 222
e 173 227
e 173 229
e 173 241
e 173 244
e 173 249
e 173 250
e 173 251
e 173 260
e 173 262
e 173 263
e 173 270
e 173 282
e 173 286
e 173 287
e 173 290
e 173 296
e 173 306
e 173 314
e 173 323
e 173 324
e 173 326
e 173 329
e 173 334
e 173 342
e 173 354
e 173 356
e 173 364
e 173 367
e 173 372
e 173 386
e 173 388
e 173 395
e 173 407
e 173 417
e 173 429
e 173 431
e 173 436
e 173 439
e 173 441
e 173 442
e 173 443
e 173 456
e 173 457
e 173 462
e 173 468
e 173 471
e 173 473
e 173 854
e 174 175
e 174 176
e 174 180
e 174 181
e 174 182
e 174 184
e 174 185
e 174 187
e 174 189
e 174 190
e 174 191
e 174 192
e 174 195
e 174 198
e 174 199
e 174 202
e 174 203
e 174 204
e 174 206
e 174 207
e 174 208
e 174 210
e 174 211
e 174 212
e 174 213
e 174 215
e 174 217
e 174 219
e 174 220
e 174 221
e 174 222
e 174 224
e 174 225
e 174 226
e 174 227
e 174 228
e 174 229
e 174 230
e 174 236
e 174 238
e 174 239
e 174 240
e 174 241
e 174 242
e 174 244
e 174 245
e 174 246
e 174 248
e 174 249
e 174 250
e 174 251
e 174 255
e 174 257
e 174 260
e 174 261
e 174 262
e 174 263
e 174 264
e 174 265
e 174 267
e 174 272
e 174 275
e 174 278
e 174 280
e 174 282
e 174 284
e 174 286
e 174 287
e 174 290
e 174 292
e 174 293
e 174 296
e 174 298
e 174 300
e 174 301
e 174 304
e 174 305
e 174 306
e 174 307
e 174 312
e 174 313
e 174 314
e 174 315
e 174 316
e 174 317
e 174 321
e 174 322
e 174 326
e 174 327
e 174 328
e 174 329
e 174 330
e 174 334
e 174 338
e 174 344
e 174 345
e 174 346
e 174 347
e 174 351
e 174 353
e 174 354
e 174 355
e 174 356
e 174 357
e 174 360
e 174 361
e 174 363
e 174 364
e 174 367
e 174 368
e 174 372
e 174 376
e 174 377
e 174 378
e 174 380
e 174 383
e 174 385
e 174 386
e 174 389
e 174 390
e 174 394
e 174 395
e 174 396
e 174 398
e 174 399
e 174 400
e 174 403
e 174 405
e 174 406
e 174 407
e 174 408
e 174 409
e 174 410
e 174 411
e 174 412
e 174 413
e 174 416
e 174 417
e 174 419
e 174 420
e 174 421
e 174 422
e 174 423
e 174 424
e 174 426
e 174 427
e 174 429
e 174 431
e 174 436
e 174 437
e 174 439
e 174 442
e 174 443
e 174 444
e 174 445
e 174 446
e 174 447
e 174 448
e 174 450
e 174 451
e 174 452
e 174 453
e 174 454
e 174 456
e 174 457
e 174 458
e 174 459
e 174 461
e 174 462
e 174 464
e 174 465
e 174 466
e 174 467
e 174 468
e 174 469
e 174 470
e 174 471
e 174 472
e 174 473
e 174 474
e 174 475
e 174 476
e 174 477
e 174 478
e 174 479
e 174 480
e 174 483
e 174 484
e 174 485
e 174 487
e 174 489
e 174 493
e 174 497
e 174 499
e 174 500
e 174 501
e 174 502
e 174 504
e 174 505
e 174 506
e 174 507
e 174 508
e 174 509
e 174 510
e 174 512
e 174 513
e 174 514
e 174 515
e 174 516
e 174 522
e 174 524
e 174 526
e 174 529
e 174 530
e 174 531
e 174 532
e 174 535
e 174 538
e 174 541
e 174 543
e 174 548
e 174 549
e 174 550
e 174 551
e 174 552
e 174 553
e 174 556
e 174 557
e 174 558
e 174 565
e 174 569
e 174 570
e 174 578
e 174 586
e 174 588
e 174 589
e 174 595
e 174 598
e 174 599
e 174 604
e 174 606
e 174 607
e 174 612
e 174 613
e 174 614
e 174 615
e 174 616
e 174 618
e 174 620
e 174 621
e 174 622
e 174 623
e 174 625
e 174 626
e 174 627
e 174 628
e 174 629
e 174 630
e 174 632
e 174 633
e 174 635
e 174 638
e 174 641
e 174 642
e 174 647
e 174 654
e 174 656
e 174 657
e 174 660
e 174 661
e 174 668
e 174 669
e 174 670
e 174 671
e 174 672
e 174 673
e 174 674
e 174 675
e 174 676
e 174 678
e 174 679
e 174 686
e 174 687
e 174 695
e 174 698
e 174 700
e 174 701
e 174 704
e 174 707
e 174 715
e 174 718
e 174 720
e 174 721
e 174 722
e 174 726
e 174 729
e 174 735
e 174 739
e 174 740
e 174 741
e 174 742
e 174 744
e 174 745
e 174 751
e 174 752
e 174 755
e 174 756
e 174 757
e 174 758
e 174 759
e 174 760
e 174 762
e 174 769
e 174 770
e 174 773
e 174 774
e 174 775
e 174 778
e 174 779
e 174 780
e 174 781
e 174 782
e 174 783
e 174 784
e 174 785
e 174 787
e 174 789
e 174 790
e 174 791
e 174 792
e 174 793
e 174 794
e 174 795
e 174 796
e 174 797
e 174 798
e 174 799
e 174 800
e 174 802
e 174 803
e 174 805
e 174 807
e 174 809
e 174 810
e 174 814
e 174 815
e 174 816
e 174 818
e 174 819
e 174 820
e 174 821
e 174 824
e 174 825
e 174 827
e 174 831
e 174 832
e 174 833
e 174 834
e 174 835
e 174 836
e 174 837
e 174 838
e 174 839
e 174 840
e 174 841
e 174 842
e 174 843
e 174 844
e 174 845
e 174 846
e 174 847
e 174 848
e 174 849
e 174 850
e 174 851
e 174 852
e 174 853
e 174 854
e 174 855
e 175 176
e 175 192
e 175 202
e 175 206
e 175 211
e 175 213
e 175 220
e 175 225
e 175 244
e 175 248
e 175 257
e 175 260
e 175 261
e 175 262
e 175 265
e 175 278
e 175 280
e 175 287
e 175 312
e 175 328
e 175 334
e 175 346
e 175 353
e 175 361
e 175 375
e 175 376
e 175 383
e 175 393
e 175 400
e 175 408
e 175 417
e 175 419
e 175 427
e 175 437
e 175 444
e 175 470
e 175 471
e 175 478
e 175 484
e 175 487
e 175 495
e 175 496
e 175 507
e 175 514
e 175 515
e 175 516
e 175 519
e 175 520
e 175 535
e 175 536
e 175 537
e 175 538
e 175 539
e 175 542
e 175 549
e 175 550
e 175 551
e 175 554
e 175 555
e 175 570
e 175 588
e 175 590
e 175 595
e 175 596
e 175 602
e 175 608
e 175 609
e 175 615
e 175 616
e 175 625
e 175 627
e 175 639
e 175 642
e 175 644
e 175 657
e 175 679
e 175 680
e 175 687
e 175 695
e 175 697
e 175 701
e 175 704
e 175 708
e 175 714
e 175 715
e 175 716
e 175 723
e 175 724
e 175 725
e 175 735
e 175 740
e 175 742
e 175 744
e 175 746
e 175 751
e 175 759
e 175 764
e 175 769
e 175 772
e 175 773
e 175 774
e 175 777
e 175 804
e 175 806
e 175 812
e 175 831
e 176 177
e 176 178
e 176 180
e 176 181
e 176 184
e 176 185
e 176 187
e 176 192
e 176 196
e 176 198
e 176 199
e 176 201
e 176 202
e 176 203
e 176 204
e 176 205
e 176 206
e 176 208
e 176 211
e 176 213
e 176 214
e 176 215
e 176 217
e 176 218
e 176 219
e 176 220
e 176 221
e 176 222
e 176 224
e 176 225
e 176 227
e 176 228
e 176 229
e 176 235
e 176 237
e 176 238
e 176 239
e 176 240
e 176 241
e 176 243
e 176 244
e 176 245
e 176 246
e 176 248
e 176 251
e 176 254
e 176 255
e 176 257
e 176 258
e 176 260
e 176 261
e 176 262
e 176 263
e 176 264
e 176 265
e 176 270
e 176 272
e 176 273
e 176 274
e 176 276
e 176 279
e 176 280
e 176 284
e 176 287
e 176 288
e 176 289
e 176 290
e 176 292
e 176 293
e 176 295
e 176 296
e 176 297
e 176 300
e 176 301
e 176 305
e 176 306
e 176 307
e 176 308
e 176 309
e 176 310
e 176 311
e 176 312
e 176 314
e 176 315
e 176 318
e 176 319
e 176 322
e 176 323
e 176 324
e 176 326
e 176 327
e 176 328
e 176 329
e 176 330
e 176 332
e 176 333
e 176 334
e 176 335
e 176 336
e 176 338
e 176 339
e 176 340
e 176 341
e 176 342
e 176 343
e 176 344
e 176 345
e 176 346
e 176 347
e 176 350
e 176 351
e 176 352
e 176 353
e 176 354
e 176 356
e 176 358
e 176 359
e 176 360
e 176 361
e 176 363
e 176 364
e 176 365
e 176 366
e 176 367
e 176 368
e 176 369
e 176 371
e 176 372
e 176 373
e 176 374
e 176 375
e 176 376
e 176 378
e 176 379
e 176 380
e 176 381
e 176 383
e 176 384
e 176 385
e 176 388
e 176 390
e 176 394
e 176 395
e 176 396
e 176 397
e 176 398
e 176 399
e 176 400
e 176 401
e 176 402
e 176 403
e 176 404
e 176 405
e 176 408
e 176 413
e 176 417
e 176 419
e 176 420
e 176 422
e 176 423
e 176 424
e 176 425
e 176 426
e 176 429
e 176 430
e 176 431
e 176 433
e 176 436
e 176 437
e 176 438
e 176 439
e 176 441
e 176 445
e 176 446
e 176 447
e 176 448
e 176 449
e 176 452
e 176 453
e 176 454
e 176 456
e 176 457
e 176 458
e 176 459
e 176 460
e 176 461
e 176 462
e 176 463
e 176 464
e 176 465
e 176 466
e 176 467
e 176 468
e 176 469
e 176 470
e 176 471
e 176 474
e 176 475
e 176 476
e 176 477
e 176 478
e 176 479
e 176 480
e 176 483
e 176 484
e 176 493
e 176 495
e 176 499
e 176 502
e 176 504
e 176 505
e 176 507
e 176 508
e 176 509
e 176 513
e 176 514
e 176 515
e 176 516
e 176 517
e 176 519
e 176 522
e 176 526
e 176 529
e 176 531
e 176 535
e 176 538
e 176 543
e 176 548
e 176 549
e 176 550
e 176 551
e 176 556
e 176 569
e 176 570
e 176 578
e 176 579
e 176 582
e 176 588
e 176 590
e 176 592
e 176 595
e 176 596
e 176 602
e 176 606
e 176 607
e 176 608
e 176 609
e 176 610
e 176 613
e 176 615
e 176 616
e 176 625
e 176 627
e 176 628
e 176 629
e 176 635
e 176 637
e 176 641
e 176 642
e 176 647
e 176 651
e 176 654
e 176 657
e 176 658
e 176 661
e 176 662
e 176 663
e 176 667
e 176 668
e 176 672
e 176 675
e 176 676
e 176 677
e 176 679
e 176 680
e 176 687
e 176 688
e 176 695
e 176 697
e 176 698
e 176 701
e 176 702
e 176 703
e 176 704
e 176 705
e 176 707
e 176 708
e 176 712
e 176 714
e 176 715
e 176 716
e 176 717
e 176 718
e 176 721
e 176 724
e 176 725
e 176 727
e 176 730
e 176 731
e 176 732
e 176 737
e 176 738
e 176 740
e 176 741
e 176 742
e 176 744
e 176 748
e 176 751
e 176 752
e 176 755
e 176 757
e 176 759
e 176 766
e 176 767
e 176 768
e 176 769
e 176 772
e 176 775
e 176 778
e 176 779
e 176 780
e 176 781
e 176 782
e 176 783
e 176 786
e 176 789
e 176 790
e 176 791
e 176 792
e 176 793
e 176 794
e 176 796
e 176 797
e 176 799
e 176 800
e 176 801
e 176 802
e 176 803
e 176 806
e 176 807
e 176 810
e 176 811
e 176 812
e 176 814
e 176 815
e 176 816
e 176 819
e 176 820
e 176 821
e 176 822
e 176 823
e 176 824
e 176 827
e 176 828
e 176 829
e 176 830
e 176 831
e 176 833
e 176 834
e 176 835
e 176 836
e 176 839
e 176 840
e 176 841
e 176 843
e 176 845
e 176 846
e 176 847
e 176 849
e 176 850
e 176 852
e 176 853
e 176 854
e 177 178
e 177 180
e 177 182
e 177 188
e 177 189
e 177 192
e 177 201
e 177 203
e 177 204
e 177 206
e 177 207
e 177 211
e 177 213
e 177 215
e 177 217
e 177 219
e 177 225
e 177 226
e 177 227
e 177 228
e 177 230
e 177 235
e 177 238
e 177 241
e 177 242
e 177 244
e 177 246
e 177 251
e 177 262
e 177 269
e 177 274
e 177 283
e 177 286
e 177 287
e 177 290
e 177 292
e 177 293
e 177 296
e 177 300
e 177 302
e 177 304
e 177 305
e 177 306
e 177 307
e 177 313
e 177 319
e 177 325
e 177 329
e 177 330
e 177 332
e 177 335
e 177 336
e 177 338
e 177 347
e 177 356
e 177 362
e 177 367
e 177 371
e 177 372
e 177 377
e 177 378
e 177 380
e 177 383
e 177 384
e 177 388
e 177 395
e 177 396
e 177 397
e 177 417
e 177 420
e 177 424
e 177 426
e 177 428
e 177 433
e 177 434
e 177 435
e 177 439
e 177 448
e 177 451
e 177 452
e 177 453
e 177 455
e 177 457
e 177 459
e 177 460
e 177 461
e 177 464
e 177 465
e 177 476
e 177 854
e 178 182
e 178 188
e 178 189
e 178 192
e 178 203
e 178 204
e 178 206
e 178 207
e 178 213
e 178 215
e 178 217
e 178 219
e 178 225
e 178 226
e 178 227
e 178 235
e 178 238
e 178 241
e 178 242
e 178 244
e 178 246
e 178 262
e 178 269
e 178 286
e 178 290
e 178 292
e 178 304
e 178 305
e 178 306
e 178 307
e 178 319
e 178 347
e 178 356
e 178 378
e 178 383
e 178 420
e 178 424
e 178 426
e 178 439
e 178 476
e 179 181
e 179 192
e 179 196
e 179 198
e 179 201
e 179 206
e 179 211
e 179 213
e 179 222
e 179 225
e 179 232
e 179 244
e 179 247
e 179 252
e 179 260
e 179 262
e 179 272
e 179 279
e 179 282
e 179 284
e 179 287
e 179 292
e 179 298
e 179 299
e 179 308
e 179 309
e 179 310
e 179 322
e 179 328
e 179 329
e 179 334
e 179 336
e 179 338
e 179 344
e 179 347
e 179 351
e 179 356
e 179 368
e 179 372
e 179 374
e 179 375
e 179 382
e 179 392
e 179 394
e 179 395
e 179 397
e 179 398
e 179 400
e 179 419
e 179 425
e 179 433
e 179 435
e 179 452
e 179 456
e 179 458
e 179 466
e 179 468
e 179 477
e 180 181
e 180 189
e 180 199
e 180 207
e 180 211
e 180 212
e 180 220
e 180 222
e 180 226
e 180 229
e 180 239
e 180 263
e 180 270
e 180 283
e 180 284
e 180 287
e 180 290
e 180 302
e 180 307
e 180 314
e 180 323
e 180 324
e 180 326
e 180 328
e 180 329
e 180 332
e 180 335
e 180 336
e 180 342
e 180 354
e 180 356
e 180 357
e 180 362
e 180 364
e 180 371
e 180 372
e 180 376
e 180 377
e 180 378
e 180 380
e 180 383
e 180 388
e 180 390
e 180 395
e 180 396
e 180 397
e 180 412
e 180 426
e 180 429
e 180 431
e 180 441
e 180 444
e 180 455
e 180 457
e 180 460
e 180 467
e 180 479
e 181 184
e 181 189
e 181 192
e 181 193
e 181 198
e 181 199
e 181 201
e 181 203
e 181 204
e 181 206
e 181 207
e 181 208
e 181 210
e 181 211
e 181 212
e 181 213
e 181 216
e 181 217
e 181 219
e 181 220
e 181 221
e 181 222
e 181 224
e 181 225
e 181 226
e 181 227
e 181 230
e 181 232
e 181 236
e 181 239
e 181 241
e 181 242
e 181 244
e 181 245
e 181 246
e 181 247
e 181 248
e 181 251
e 181 252
e 181 257
e 181 259
e 181 260
e 181 262
e 181 264
e 181 265
e 181 267
e 181 268
e 181 269
e 181 272
e 181 274
e 181 275
e 181 276
e 181 280
e 181 282
e 181 284
e 181 287
e 181 288
e 181 290
e 181 291
e 181 292
e 181 293
e 181 296
e 181 298
e 181 299
e 181 300
e 181 307
e 181 308
e 181 309
e 181 313
e 181 314
e 181 317
e 181 318
e 181 319
e 181 321
e 181 325
e 181 326
e 181 327
e 181 328
e 181 329
e 181 330
e 181 331
e 181 334
e 181 335
e 181 336
e 181 338
e 181 339
e 181 342
e 181 343
e 181 344
e 181 345
e 181 346
e 181 347
e 181 349
e 181 350
e 181 352
e 181 354
e 181 356
e 181 357
e 181 358
e 181 359
e 181 360
e 181 365
e 181 366
e 181 367
e 181 368
e 181 370
e 181 371
e 181 372
e 181 373
e 181 376
e 181 377
e 181 378
e 181 379
e 181 380
e 181 381
e 181 382
e 181 383
e 181 385
e 181 386
e 181 387
e 181 389
e 181 390
e 181 391
e 181 392
e 181 393
e 181 394
e 181 395
e 181 396
e 181 397
e 181 400
e 181 401
e 181 403
e 181 404
e 181 412
e 181 413
e 181 414
e 181 415
e 181 416
e 181 417
e 181 418
e 181 419
e 181 420
e 181 421
e 181 422
e 181 424
e 181 426
e 181 429
e 181 430
e 181 432
e 181 433
e 181 434
e 181 435
e 181 436
e 181 437
e 181 438
e 181 440
e 181 442
e 181 443
e 181 444
e 181 445
e 181 446
e 181 448
e 181 449
e 181 450
e 181 451
e 181 452
e 181 453
e 181 455
e 181 456
e 181 457
e 181 458
e 181 459
e 181 460
e 181 461
e 181 462
e 181 463
e 181 464
e 181 465
e 181 466
e 181 467
e 181 468
e 181 469
e 181 472
e 181 473
e 181 475
e 181 477
e 181 478
e 181 479
e 181 480
e 181 854
e 182 188
e 182 189
e 182 192
e 182 203
e 182 204
e 182 206
e 182 207
e 182 210
e 182 212
e 182 213
e 182 215
e 182 217
e 182 219
e 182 222
e 182 223
e 182 225
e 182 226
e 182 227
e 182 235
e 182 236
e 182 238
e 182 241
e 182 242
e 182 244
e 182 246
e 182 260
e 182 262
e 182 264
e 182 265
e 182 269
e 182 271
e 182 274
e 182 276
e 182 277
e 182 280
e 182 283
e 182 286
e 182 287
e 182 289
e 182 290
e 182 292
e 182 300
e 182 304
e 182 306
e 182 307
e 182 316
e 182 319
e 182 328
e 182 329
e 182 330
e 182 334
e 182 338
e 182 339
e 182 347
e 182 348
e 182 349
e 182 350
e 182 356
e 182 358
e 182 359
e 182 367
e 182 368
e 182 372
e 182 376
e 182 377
e 182 378
e 182 380
e 182 383
e 182 386
e 182 393
e 182 395
e 182 406
e 182 418
e 182 420
e 182 422
e 182 424
e 182 426
e 182 429
e 182 430
e 182 432
e 182 443
e 182 444
e 182 448
e 182 453
e 182 469
e 182 476
e 183 198
e 183 199
e 183 200
e 183 203
e 183 204
e 183 211
e 183 217
e 183 220
e 183 224
e 183 231
e 183 234
e 183 251
e 183 260
e 183 262
e 183 263
e 183 264
e 183 287
e 183 290
e 183 292
e 183 294
e 183 296
e 183 300
e 183 302
e 183 303
e 183 314
e 183 327
e 183 330
e 183 331
e 183 342
e 183 355
e 183 356
e 183 368
e 183 394
e 183 417
e 183 429
e 183 431
e 183 440
e 183 441
e 183 472
e 184 192
e 184 203
e 184 204
e 184 206
e 184 211
e 184 213
e 184 217
e 184 220
e 184 221
e 184 222
e 184 224
e 184 225
e 184 227
e 184 230
e 184 244
e 184 245
e 184 246
e 184 248
e 184 251
e 184 257
e 184 260
e 184 272
e 184 280
e 184 287
e 184 292
e 184 293
e 184 296
e 184 314
e 184 327
e 184 329
e 184 330
e 184 334
e 184 335
e 184 342
e 184 346
e 184 347
e 184 354
e 184 358
e 184 360
e 184 368
e 184 380
e 184 389
e 184 390
e 184 394
e 184 396
e 184 401
e 184 403
e 184 415
e 184 416
e 184 417
e 184 420
e 184 421
e 184 422
e 184 443
e 184 445
e 184 446
e 184 449
e 184 453
e 184 456
e 184 458
e 184 461
e 184 464
e 184 465
e 184 472
e 184 473
e 184 475
e 184 478
e 184 480
e 184 854
e 185 189
e 185 192
e 185 204
e 185 210
e 185 212
e 185 213
e 185 219
e 185 225
e 185 227
e 185 238
e 185 239
e 185 242
e 185 244
e 185 272
e 185 284
e 185 287
e 185 292
e 185 293
e 185 300
e 185 304
e 185 315
e 185 326
e 185 330
e 185 344
e 185 347
e 185 356
e 185 363
e 185 368
e 185 372
e 185 376
e 185 378
e 185 380
e 185 399
e 185 406
e 185 423
e 185 424
e 185 429
e 185 439
e 185 444
e 185 452
e 185 453
e 185 457
e 185 462
e 185 475
e 185 476
e 185 477
e 185 479
e 186 188
e 186 189
e 186 192
e 186 198
e 186 199
e 186 203
e 186 210
e 186 215
e 186 217
e 186 219
e 186 224
e 186 227
e 186 234
e 186 242
e 186 246
e 186 262
e 186 263
e 186 269
e 186 280
e 186 290
e 186 292
e 186 294
e 186 300
e 186 302
e 186 303
e 186 304
e 186 319
e 186 329
e 186 330
e 186 347
e 186 356
e 186 366
e 186 387
e 186 417
e 186 441
e 187 192
e 187 204
e 187 213
e 187 219
e 187 227
e 187 239
e 187 240
e 187 241
e 187 260
e 187 284
e 187 292
e 187 293
e 187 305
e 187 326
e 187 330
e 187 344
e 187 347
e 187 368
e 187 378
e 187 380
e 187 399
e 187 423
e 187 439
e 187 452
e 187 457
e 187 462
e 187 476
e 187 477
e 187 479
e 188 189
e 188 192
e 188 199
e 188 203
e 188 206
e 188 207
e 188 210
e 188 215
e 188 217
e 188 219
e 188 225
e 188 226
e 188 227
e 188 234
e 188 241
e 188 242
e 188 246
e 188 262
e 188 263
e 188 269
e 188 280
e 188 286
e 188 290
e 188 292
e 188 294
e 188 300
e 188 304
e 188 306
e 188 319
e 188 329
e 188 347
e 188 356
e 188 366
e 188 378
e 188 383
e 188 387
e 188 417
e 188 426
e 188 441
e 188 476
e 189 192
e 189 203
e 189 204
e 189 206
e 189 207
e 189 210
e 189 212
e 189 213
e 189 215
e 189 217
e 189 219
e 189 222
e 189 225
e 189 226
e 189 227
e 189 236
e 189 238
e 189 239
e 189 240
e 189 241
e 189 242
e 189 244
e 189 246
e 189 251
e 189 262
e 189 265
e 189 269
e 189 278
e 189 280
e 189 284
e 189 286
e 189 287
e 189 290
e 189 292
e 189 293
e 189 300
e 189 304
e 189 305
e 189 306
e 189 307
e 189 314
e 189 319
e 189 326
e 189 329
e 189 330
e 189 339
e 189 340
e 189 347
e 189 356
e 189 357
e 189 363
e 189 372
e 189 375
e 189 376
e 189 378
e 189 380
e 189 383
e 189 390
e 189 399
e 189 405
e 189 406
e 189 412
e 189 417
e 189 423
e 189 424
e 189 426
e 189 429
e 189 432
e 189 439
e 189 441
e 189 444
e 189 453
e 189 461
e 189 467
e 189 476
e 189 479
e 189 480
e 190 199
e 190 202
e 190 206
e 190 211
e 190 213
e 190 225
e 190 249
e 190 257
e 190 260
e 190 267
e 190 272
e 190 273
e 190 293
e 190 296
e 190 298
e 190 313
e 190 316
e 190 319
e 190 332
e 190 354
e 190 364
e 190 372
e 190 373
e 190 383
e 190 394
e 190 444
e 190 468
e 190 471
e 190 501
e 190 502
e 190 507
e 190 508
e 190 509
e 190 513
e 190 522
e 190 525
e 190 526
e 190 531
e 190 534
e 190 535
e 190 540
e 190 541
e 190 543
e 190 548
e 190 549
e 190 551
e 190 552
e 190 556
e 190 558
e 190 570
e 190 578
e 190 586
e 190 588
e 190 591
e 190 595
e 190 613
e 190 616
e 190 624
e 190 626
e 190 627
e 190 628
e 190 629
e 190 630
e 190 632
e 190 633
e 190 640
e 190 642
e 190 647
e 190 654
e 190 655
e 190 657
e 190 660
e 190 669
e 190 670
e 190 671
e 190 672
e 190 674
e 190 676
e 190 687
e 190 691
e 190 695
e 190 700
e 190 704
e 190 707
e 190 718
e 190 720
e 190 721
e 190 722
e 190 729
e 190 742
e 190 749
e 190 751
e 190 757
e 190 758
e 190 762
e 190 769
e 190 770
e 190 773
e 190 774
e 190 780
e 190 784
e 190 789
e 190 795
e 190 796
e 190 797
e 190 805
e 190 807
e 190 812
e 190 833
e 190 838
e 190 845
e 190 846
e 190 849
e 190 852
e 190 853
e 191 195
e 191 204
e 191 206
e 191 210
e 191 213
e 191 215
e 191 222
e 191 227
e 191 241
e 191 244
e 191 249
e 191 250
e 191 251
e 191 260
e 191 262
e 191 286
e 191 287
e 191 296
e 191 300
e 191 306
e 191 329
e 191 330
e 191 334
e 191 344
e 191 356
e 191 367
e 191 380
e 191 390
e 191 407
e 191 423
e 191 429
e 191 439
e 191 443
e 191 450
e 191 452
e 191 457
e 191 462
e 191 468
e 191 473
e 191 477
e 191 854
e 192 194
e 192 195
e 192 196
e 192 198
e 192 199
e 192 201
e 192 202
e 192 203
e 192 204
e 192 206
e 192 207
e 192 208
e 192 209
e 192 210
e 192 211
e 192 212
e 192 213
e 192 214
e 192 215
e 192 217
e 192 218
e 192 219
e 192 220
e 192 222
e 192 225
e 192 226
e 192 227
e 192 228
e 192 229
e 192 230
e 192 232
e 192 233
e 192 235
e 192 236
e 192 237
e 192 238
e 192 239
e 192 240
e 192 241
e 192 242
e 192 244
e 192 245
e 192 246
e 192 247
e 192 248
e 192 249
e 192 250
e 192 251
e 192 253
e 192 254
e 192 255
e 192 256
e 192 257
e 192 258
e 192 260
e 192 261
e 192 262
e 192 263
e 192 264
e 192 265
e 192 266
e 192 267
e 192 269
e 192 270
e 192 272
e 192 273
e 192 274
e 192 275
e 192 276
e 192 278
e 192 279
e 192 280
e 192 281
e 192 282
e 192 283
e 192 284
e 192 285
e 192 286
e 192 287
e 192 289
e 192 290
e 192 291
e 192 292
e 192 293
e 192 295
e 192 296
e 192 299
e 192 300
e 192 301
e 192 302
e 192 304
e 192 305
e 192 306
e 192 307
e 192 308
e 192 309
e 192 310
e 192 311
e 192 313
e 192 314
e 192 315
e 192 317
e 192 318
e 192 319
e 192 320
e 192 322
e 192 325
e 192 326
e 192 327
e 192 328
e 192 329
e 192 330
e 192 331
e 192 332
e 192 334
e 192 335
e 192 336
e 192 337
e 192 338
e 192 339
e 192 340
e 192 341
e 192 342
e 192 343
e 192 344
e 192 345
e 192 346
e 192 347
e 192 349
e 192 351
e 192 353
e 192 354
e 192 356
e 192 358
e 192 361
e 192 365
e 192 366
e 192 367
e 192 368
e 192 369
e 192 370
e 192 372
e 192 373
e 192 374
e 192 375
e 192 376
e 192 378
e 192 379
e 192 380
e 192 383
e 192 384
e 192 385
e 192 386
e 192 387
e 192 388
e 192 389
e 192 390
e 192 391
e 192 393
e 192 395
e 192 396
e 192 397
e 192 398
e 192 400
e 192 401
e 192 402
e 192 404
e 192 405
e 192 406
e 192 407
e 192 409
e 192 410
e 192 411
e 192 413
e 192 414
e 192 415
e 192 416
e 192 417
e 192 418
e 192 419
e 192 420
e 192 421
e 192 422
e 192 423
e 192 424
e 192 425
e 192 426
e 192 427
e 192 428
e 192 429
e 192 430
e 192 432
e 192 433
e 192 434
e 192 435
e 192 436
e 192 437
e 192 438
e 192 439
e 192 440
e 192 441
e 192 442
e 192 443
e 192 444
e 192 445
e 192 446
e 192 447
e 192 448
e 192 449
e 192 450
e 192 451
e 192 452
e 192 453
e 192 454
e 192 455
e 192 456
e 192 457
e 192 458
e 192 459
e 192 460
e 192 461
e 192 462
e 192 463
e 192 464
e 192 465
e 192 466
e 192 467
e 192 468
e 192 469
e 192 470
e 192 471
e 192 472
e 192 473
e 192 474
e 192 475
e 192 476
e 192 477
e 192 478
e 192 479
e 192 480
e 192 483
e 192 484
e 192 485
e 192 487
e 192 489
e 192 493
e 192 494
e 192 495
e 192 496
e 192 497
e 192 499
e 192 501
e 192 502
e 192 504
e 192 505
e 192 508
e 192 509
e 192 510
e 192 514
e 192 515
e 192 516
e 192 517
e 192 520
e 192 522
e 192 524
e 192 526
e 192 529
e 192 530
e 192 531
e 192 532
e 192 535
e 192 536
e 192 537
e 192 538
e 192 539
e 192 543
e 192 548
e 192 549
e 192 550
e 192 551
e 192 552
e 192 554
e 192 555
e 192 569
e 192 570
e 192 578
e 192 582
e 192 583
e 192 584
e 192 585
e 192 586
e 192 587
e 192 588
e 192 589
e 192 590
e 192 592
e 192 595
e 192 596
e 192 600
e 192 601
e 192 602
e 192 606
e 192 607
e 192 609
e 192 610
e 192 613
e 192 615
e 192 616
e 192 622
e 192 623
e 192 625
e 192 627
e 192 629
e 192 637
e 192 638
e 192 639
e 192 641
e 192 642
e 192 644
e 192 647
e 192 652
e 192 654
e 192 655
e 192 657
e 192 661
e 192 665
e 192 667
e 192 670
e 192 672
e 192 673
e 192 675
e 192 676
e 192 678
e 192 679
e 192 681
e 192 682
e 192 683
e 192 684
e 192 685
e 192 687
e 192 689
e 192 692
e 192 693
e 192 695
e 192 697
e 192 698
e 192 701
e 192 702
e 192 703
e 192 704
e 192 705
e 192 707
e 192 708
e 192 709
e 192 711
e 192 715
e 192 716
e 192 718
e 192 720
e 192 721
e 192 723
e 192 724
e 192 725
e 192 726
e 192 729
e 192 731
e 192 732
e 192 733
e 192 735
e 192 739
e 192 740
e 192 741
e 192 742
e 192 744
e 192 745
e 192 746
e 192 747
e 192 748
e 192 749
e 192 750
e 192 751
e 192 752
e 192 755
e 192 759
e 192 764
e 192 765
e 192 766
e 192 767
e 192 769
e 192 771
e 192 772
e 192 773
e 192 774
e 192 775
e 192 777
e 192 778
e 192 779
e 192 780
e 192 782
e 192 783
e 192 785
e 192 786
e 192 788
e 192 789
e 192 791
e 192 792
e 192 793
e 192 796
e 192 798
e 192 799
e 192 800
e 192 801
e 192 802
e 192 803
e 192 804
e 192 806
e 192 808
e 192 810
e 192 811
e 192 812
e 192 815
e 192 816
e 192 818
e 192 819
e 192 820
e 192 822
e 192 823
e 192 824
e 192 825
e 192 828
e 192 831
e 192 832
e 192 833
e 192 834
e 192 835
e 192 836
e 192 837
e 192 838
e 192 839
e 192 840
e 192 841
e 192 842
e 192 843
e 192 844
e 192 845
e 192 846
e 192 847
e 192 848
e 192 849
e 192 851
e 192 853
e 192 854
e 192 855
e 193 206
e 193 210
e 193 219
e 193 226
e 193 227
e 193 241
e 193 268
e 193 284
e 193 287
e 193 307
e 193 321
e 193 329
e 193 343
e 193 367
e 193 373
e 193 395
e 193 400
e 193 404
e 193 413
e 193 417
e 193 418
e 193 422
e 193 430
e 193 437
e 193 442
e 193 450
e 193 463
e 194 204
e 194 213
e 194 227
e 194 229
e 194 233
e 194 235
e 194 245
e 194 248
e 194 251
e 194 262
e 194 267
e 194 270
e 194 281
e 194 282
e 194 284
e 194 285
e 194 287
e 194 291
e 194 299
e 194 326
e 194 334
e 194 341
e 194 345
e 194 353
e 194 388
e 194 389
e 194 400
e 194 414
e 194 425
e 194 452
e 194 462
e 195 203
e 195 212
e 195 213
e 195 214
e 195 215
e 195 222
e 195 227
e 195 237
e 195 239
e 195 241
e 195 244
e 195 249
e 195 250
e 195 251
e 195 253
e 195 254
e 195 256
e 195 260
e 195 262
e 195 266
e 195 282
e 195 283
e 195 286
e 195 287
e 195 290
e 195 296
e 195 300
e 195 306
e 195 320
e 195 329
e 195 334
e 195 337
e 195 338
e 195 356
e 195 367
e 195 386
e 195 395
e 195 407
e 195 421
e 195 432
e 195 439
e 195 440
e 195 442
e 195 443
e 195 456
e 195 462
e 195 468
e 195 469
e 195 471
e 195 472
e 195 473
e 195 474
e 195 854
e 196 218
e 196 222
e 196 225
e 196 232
e 196 246
e 196 251
e 196 272
e 196 279
e 196 287
e 196 292
e 196 293
e 196 301
e 196 310
e 196 315
e 196 322
e 196 326
e 196 330
e 196 334
e 196 336
e 196 340
e 196 344
e 196 347
e 196 351
e 196 368
e 196 372
e 196 374
e 196 375
e 196 398
e 196 400
e 196 402
e 196 405
e 196 425
e 196 433
e 196 452
e 196 453
e 196 456
e 196 462
e 196 475
e 196 476
e 196 477
e 196 479
e 197 198
e 197 200
e 197 211
e 197 217
e 197 218
e 197 220
e 197 231
e 197 244
e 197 251
e 197 264
e 197 290
e 197 292
e 197 293
e 197 296
e 197 300
e 197 302
e 197 303
e 197 327
e 197 330
e 197 334
e 197 355
e 197 356
e 197 363
e 197 368
e 197 376
e 197 378
e 197 399
e 197 425
e 197 429
e 197 431
e 197 433
e 197 444
e 198 199
e 198 200
e 198 201
e 198 203
e 198 204
e 198 206
e 198 208
e 198 210
e 198 211
e 198 213
e 198 217
e 198 220
e 198 222
e 198 224
e 198 225
e 198 227
e 198 228
e 198 231
e 198 234
e 198 241
e 198 244
e 198 246
e 198 247
e 198 248
e 198 251
e 198 259
e 198 260
e 198 262
e 198 263
e 198 264
e 198 272
e 198 275
e 198 276
e 198 284
e 198 287
e 198 290
e 198 292
e 198 293
e 198 294
e 198 296
e 198 298
e 198 299
e 198 300
e 198 302
e 198 303
e 198 308
e 198 309
e 198 310
e 198 314
e 198 317
e 198 318
e 198 322
e 198 327
e 198 328
e 198 329
e 198 330
e 198 331
e 198 334
e 198 335
e 198 336
e 198 338
e 198 342
e 198 344
e 198 346
e 198 347
e 198 355
e 198 356
e 198 358
e 198 363
e 198 364
e 198 368
e 198 370
e 198 372
e 198 375
e 198 376
e 198 377
e 198 379
e 198 380
e 198 384
e 198 386
e 198 388
e 198 391
e 198 392
e 198 393
e 198 394
e 198 395
e 198 397
e 198 398
e 198 399
e 198 400
e 198 401
e 198 413
e 198 414
e 198 415
e 198 416
e 198 417
e 198 418
e 198 419
e 198 425
e 198 429
e 198 431
e 198 435
e 198 436
e 198 438
e 198 440
e 198 441
e 198 443
e 198 447
e 198 450
e 198 452
e 198 454
e 198 455
e 198 456
e 198 457
e 198 458
e 198 460
e 198 462
e 198 466
e 198 472
e 198 473
e 198 477
e 198 478
e 198 480
e 198 854
e 199 201
e 199 202
e 199 203
e 199 204
e 199 206
e 199 208
e 199 210
e 199 211
e 199 213
e 199 216
e 199 217
e 199 219
e 199 220
e 199 221
e 199 222
e 199 224
e 199 225
e 199 227
e 199 228
e 199 229
e 199 233
e 199 234
e 199 241
e 199 243
e 199 244
e 199 245
e 199 246
e 199 248
e 199 251
e 199 252
e 199 255
e 199 257
e 199 259
e 199 260
e 199 262
e 199 263
e 199 264
e 199 265
e 199 270
e 199 272
e 199 280
e 199 282
e 199 283
e 199 284
e 199 286
e 199 287
e 199 290
e 199 292
e 199 294
e 199 296
e 199 298
e 199 299
e 199 300
e 199 302
e 199 303
e 199 304
e 199 307
e 199 310
e 199 312
e 199 313
e 199 314
e 199 317
e 199 318
e 199 319
e 199 322
e 199 323
e 199 324
e 199 327
e 199 328
e 199 329
e 199 330
e 199 331
e 199 334
e 199 335
e 199 336
e 199 338
e 199 342
e 199 345
e 199 346
e 199 349
e 199 350
e 199 351
e 199 353
e 199 354
e 199 355
e 199 356
e 199 359
e 199 360
e 199 361
e 199 362
e 199 364
e 199 365
e 199 366
e 199 367
e 199 368
e 199 371
e 199 372
e 199 376
e 199 381
e 199 382
e 199 383
e 199 385
e 199 387
e 199 388
e 199 389
e 199 390
e 199 391
e 199 392
e 199 393
e 199 394
e 199 395
e 199 397
e 199 400
e 199 403
e 199 408
e 199 409
e 199 410
e 199 411
e 199 414
e 199 416
e 199 417
e 199 420
e 199 422
e 199 424
e 199 426
e 199 428
e 199 429
e 199 431
e 199 432
e 199 434
e 199 435
e 199 437
e 199 440
e 199 441
e 199 444
e 199 445
e 199 446
e 199 451
e 199 452
e 199 453
e 199 454
e 199 456
e 199 457
e 199 460
e 199 461
e 199 463
e 199 464
e 199 470
e 199 471
e 199 472
e 199 474
e 199 475
e 199 489
e 199 493
e 199 502
e 199 507
e 199 508
e 199 509
e 199 510
e 199 513
e 199 514
e 199 516
e 199 522
e 199 526
e 199 531
e 199 535
e 199 538
e 199 543
e 199 548
e 199 549
e 199 550
e 199 551
e 199 552
e 199 556
e 199 558
e 199 569
e 199 570
e 199 588
e 199 595
e 199 598
e 199 599
e 199 606
e 199 607
e 199 613
e 199 615
e 199 616
e 199 623
e 199 626
e 199 627
e 199 629
e 199 633
e 199 635
e 199 641
e 199 645
e 199 646
e 199 647
e 199 648
e 199 657
e 199 660
e 199 661
e 199 670
e 199 672
e 199 676
e 199 679
e 199 698
e 199 699
e 199 704
e 199 707
e 199 709
e 199 711
e 199 713
e 199 720
e 199 726
e 199 742
e 199 745
e 199 751
e 199 754
e 199 758
e 199 765
e 199 769
e 199 774
e 199 775
e 199 778
e 199 779
e 199 780
e 199 795
e 199 797
e 199 798
e 199 802
e 199 805
e 199 807
e 199 810
e 199 815
e 199 821
e 199 824
e 199 831
e 199 833
e 199 837
e 199 838
e 199 841
e 199 842
e 199 844
e 199 849
e 199 850
e 199 851
e 199 852
e 199 853
e 199 855
e 200 211
e 200 217
e 200 220
e 200 224
e 200 231
e 200 251
e 200 260
e 200 262
e 200 263
e 200 264
e 200 290
e 200 292
e 200 294
e 200 296
e 200 300
e 200 302
e 200 303
e 200 327
e 200 330
e 200 331
e 200 334
e 200 355
e 200 363
e 200 368
e 200 376
e 200 399
e 200 425
e 200 429
e 200 431
e 201 203
e 201 204
e 201 206
e 201 208
e 201 211
e 201 213
e 201 227
e 201 228
e 201 232
e 201 235
e 201 236
e 201 244
e 201 247
e 201 248
e 201 251
e 201 252
e 201 259
e 201 260
e 201 261
e 201 262
e 201 267
e 201 274
e 201 279
e 201 284
e 201 287
e 201 291
e 201 292
e 201 293
e 201 296
e 201 297
e 201 298
e 201 300
e 201 302
e 201 307
e 201 308
e 201 309
e 201 313
e 201 319
e 201 325
e 201 326
e 201 328
e 201 329
e 201 330
e 201 332
e 201 334
e 201 336
e 201 338
e 201 342
e 201 344
e 201 347
e 201 351
e 201 352
e 201 356
e 201 358
e 201 359
e 201 365
e 201 367
e 201 368
e 201 369
e 201 370
e 201 372
e 201 374
e 201 375
e 201 376
e 201 380
e 201 385
e 201 387
e 201 388
e 201 389
e 201 391
e 201 392
e 201 393
e 201 394
e 201 395
e 201 397
e 201 414
e 201 415
e 201 416
e 201 419
e 201 428
e 201 433
e 201 434
e 201 435
e 201 447
e 201 452
e 201 454
e 201 455
e 201 456
e 201 458
e 201 462
e 201 466
e 201 468
e 201 470
e 201 473
e 202 203
e 202 204
e 202 205
e 202 206
e 202 211
e 202 213
e 202 214
e 202 219
e 202 220
e 202 225
e 202 227
e 202 241
e 202 244
e 202 246
e 202 248
e 202 251
e 202 255
e 202 257
e 202 260
e 202 261
e 202 264
e 202 265
e 202 267
e 202 272
e 202 274
e 202 276
e 202 278
e 202 280
e 202 287
e 202 293
e 202 296
e 202 297
e 202 298
e 202 306
e 202 313
e 202 316
e 202 335
e 202 338
e 202 344
e 202 346
e 202 351
e 202 352
e 202 354
e 202 359
e 202 364
e 202 372
e 202 383
e 202 384
e 202 385
e 202 388
e 202 393
e 202 394
e 202 396
e 202 398
e 202 400
e 202 417
e 202 420
e 202 426
e 202 427
e 202 443
e 202 444
e 202 447
e 202 453
e 202 454
e 202 457
e 202 459
e 202 466
e 202 468
e 202 470
e 202 471
e 202 474
e 202 478
e 202 483
e 202 484
e 202 485
e 202 488
e 202 489
e 202 490
e 202 491
e 202 492
e 202 493
e 202 494
e 202 499
e 202 501
e 202 502
e 202 504
e 202 505
e 202 507
e 202 508
e 202 509
e 202 510
e 202 513
e 202 514
e 202 515
e 202 516
e 202 520
e 202 522
e 202 524
e 202 526
e 202 529
e 202 531
e 202 535
e 202 536
e 202 537
e 202 538
e 202 539
e 202 542
e 202 543
e 202 548
e 202 549
e 202 550
e 202 551
e 202 552
e 202 555
e 202 556
e 202 558
e 202 569
e 202 570
e 202 577
e 202 578
e 202 585
e 202 588
e 202 589
e 202 595
e 202 596
e 202 598
e 202 599
e 202 602
e 202 604
e 202 607
e 202 608
e 202 609
e 202 610
e 202 611
e 202 613
e 202 615
e 202 616
e 202 623
e 202 624
e 202 626
e 202 627
e 202 628
e 202 629
e 202 630
e 202 632
e 202 633
e 202 635
e 202 641
e 202 642
e 202 644
e 202 647
e 202 650
e 202 653
e 202 654
e 202 657
e 202 660
e 202 661
e 202 667
e 202 669
e 202 670
e 202 671
e 202 672
e 202 673
e 202 674
e 202 675
e 202 676
e 202 679
e 202 682
e 202 685
e 202 686
e 202 687
e 202 688
e 202 693
e 202 694
e 202 695
e 202 697
e 202 699
e 202 701
e 202 704
e 202 706
e 202 708
e 202 709
e 202 711
e 202 713
e 202 714
e 202 715
e 202 718
e 202 720
e 202 721
e 202 723
e 202 724
e 202 725
e 202 726
e 202 727
e 202 729
e 202 732
e 202 734
e 202 735
e 202 736
e 202 738
e 202 739
e 202 740
e 202 741
e 202 742
e 202 744
e 202 745
e 202 748
e 202 751
e 202 752
e 202 754
e 202 757
e 202 758
e 202 759
e 202 762
e 202 765
e 202 766
e 202 769
e 202 770
e 202 771
e 202 774
e 202 775
e 202 778
e 202 779
e 202 780
e 202 782
e 202 784
e 202 785
e 202 788
e 202 795
e 202 796
e 202 797
e 202 798
e 202 799
e 202 800
e 202 803
e 202 804
e 202 805
e 202 806
e 202 807
e 202 808
e 202 810
e 202 812
e 202 813
e 202 814
e 202 815
e 202 816
e 202 818
e 202 822
e 202 823
e 202 824
e 202 825
e 202 826
e 202 827
e 202 828
e 202 830
e 202 831
e 202 832
e 202 833
e 202 834
e 202 835
e 202 836
e 202 837
e 202 838
e 202 840
e 202 841
e 202 842
e 202 843
e 202 844
e 202 845
e 202 846
e 202 847
e 202 848
e 202 849
e 202 851
e 202 852
e 202 853
e 202 855
e 203 204
e 203 205
e 203 206
e 203 207
e 203 208
e 203 210
e 203 211
e 203 212
e 203 213
e 203 214
e 203 215
e 203 217
e 203 219
e 203 220
e 203 222
e 203 224
e 203 225
e 203 226
e 203 227
e 203 228
e 203 230
e 203 234
e 203 235
e 203 236
e 203 237
e 203 238
e 203 239
e 203 241
e 203 242
e 203 244
e 203 245
e 203 246
e 203 247
e 203 248
e 203 251
e 203 253
e 203 254
e 203 255
e 203 256
e 203 257
e 203 258
e 203 259
e 203 260
e 203 262
e 203 263
e 203 264
e 203 265
e 203 266
e 203 267
e 203 269
e 203 271
e 203 272
e 203 273
e 203 274
e 203 277
e 203 279
e 203 280
e 203 281
e 203 282
e 203 283
e 203 284
e 203 285
e 203 286
e 203 287
e 203 290
e 203 291
e 203 292
e 203 293
e 203 294
e 203 296
e 203 297
e 203 298
e 203 299
e 203 300
e 203 302
e 203 303
e 203 304
e 203 305
e 203 306
e 203 307
e 203 313
e 203 314
e 203 316
e 203 318
e 203 319
e 203 320
e 203 326
e 203 327
e 203 328
e 203 329
e 203 330
e 203 331
e 203 334
e 203 335
e 203 336
e 203 337
e 203 338
e 203 339
e 203 342
e 203 344
e 203 346
e 203 347
e 203 352
e 203 355
e 203 356
e 203 358
e 203 364
e 203 366
e 203 367
e 203 368
e 203 371
e 203 372
e 203 378
e 203 379
e 203 380
e 203 382
e 203 383
e 203 384
e 203 386
e 203 388
e 203 389
e 203 390
e 203 392
e 203 394
e 203 395
e 203 396
e 203 400
e 203 404
e 203 407
e 203 414
e 203 415
e 203 416
e 203 417
e 203 420
e 203 421
e 203 424
e 203 426
e 203 429
e 203 431
e 203 432
e 203 433
e 203 435
e 203 436
e 203 437
e 203 439
e 203 440
e 203 441
e 203 442
e 203 443
e 203 447
e 203 449
e 203 454
e 203 456
e 203 459
e 203 461
e 203 462
e 203 465
e 203 466
e 203 467
e 203 468
e 203 469
e 203 470
e 203 471
e 203 472
e 203 473
e 203 474
e 203 476
e 203 478
e 203 480
e 204 205
e 204 206
e 204 208
e 204 210
e 204 211
e 204 212
e 204 213
e 204 215
e 204 217
e 204 219
e 204 220
e 204 221
e 204 222
e 204 224
e 204 225
e 204 226
e 204 227
e 204 228
e 204 229
e 204 230
e 204 233
e 204 234
e 204 235
e 204 236
e 204 237
e 204 238
e 204 239
e 204 240
e 204 241
e 204 242
e 204 243
e 204 244
e 204 245
e 204 246
e 204 247
e 204 248
e 204 251
e 204 254
e 204 255
e 204 257
e 204 258
e 204 260
e 204 261
e 204 262
e 204 263
e 204 264
e 204 267
e 204 268
e 204 270
e 204 271
e 204 272
e 204 273
e 204 274
e 204 275
e 204 276
e 204 277
e 204 278
e 204 279
e 204 280
e 204 281
e 204 282
e 204 283
e 204 284
e 204 285
e 204 286
e 204 287
e 204 290
e 204 291
e 204 292
e 204 293
e 204 294
e 204 295
e 204 296
e 204 297
e 204 299
e 204 300
e 204 302
e 204 303
e 204 304
e 204 305
e 204 306
e 204 307
e 204 310
e 204 311
e 204 312
e 204 314
e 204 316
e 204 317
e 204 318
e 204 319
e 204 321
e 204 322
e 204 324
e 204 325
e 204 326
e 204 327
e 204 329
e 204 330
e 204 331
e 204 332
e 204 334
e 204 335
e 204 337
e 204 338
e 204 339
e 204 340
e 204 342
e 204 343
e 204 344
e 204 345
e 204 346
e 204 347
e 204 348
e 204 349
e 204 352
e 204 353
e 204 354
e 204 356
e 204 358
e 204 360
e 204 361
e 204 363
e 204 366
e 204 367
e 204 368
e 204 369
e 204 370
e 204 372
e 204 373
e 204 375
e 204 376
e 204 377
e 204 378
e 204 379
e 204 380
e 204 384
e 204 388
e 204 389
e 204 390
e 204 394
e 204 397
e 204 399
e 204 400
e 204 401
e 204 403
e 204 404
e 204 405
e 204 406
e 204 408
e 204 409
e 204 410
e 204 411
e 204 413
e 204 414
e 204 415
e 204 416
e 204 417
e 204 418
e 204 420
e 204 421
e 204 422
e 204 423
e 204 424
e 204 429
e 204 430
e 204 432
e 204 435
e 204 436
e 204 437
e 204 438
e 204 439
e 204 440
e 204 441
e 204 442
e 204 443
e 204 444
e 204 445
e 204 446
e 204 447
e 204 449
e 204 450
e 204 451
e 204 452
e 204 453
e 204 454
e 204 456
e 204 457
e 204 458
e 204 460
e 204 461
e 204 462
e 204 463
e 204 466
e 204 467
e 204 468
e 204 469
e 204 470
e 204 471
e 204 472
e 204 473
e 204 474
e 204 475
e 204 476
e 204 477
e 204 478
e 204 479
e 204 480
e 204 854
e 205 211
e 205 219
e 205 248
e 205 251
e 205 287
e 205 296
e 205 297
e 205 335
e 205 338
e 205 344
e 205 352
e 205 384
e 205 388
e 205 420
e 205 447
e 205 454
e 205 466
e 205 470
e 206 207
e 206 208
e 206 210
e 206 211
e 206 212
e 206 213
e 206 214
e 206 215
e 206 216
e 206 217
e 206 219
e 206 220
e 206 221
e 206 222
e 206 224
e 206 225
e 206 226
e 206 227
e 206 228
e 206 229
e 206 230
e 206 239
e 206 240
e 206 241
e 206 242
e 206 243
e 206 244
e 206 245
e 206 246
e 206 247
e 206 248
e 206 251
e 206 252
e 206 255
e 206 257
e 206 260
e 206 261
e 206 262
e 206 263
e 206 264
e 206 265
e 206 267
e 206 268
e 206 269
e 206 272
e 206 273
e 206 274
e 206 275
e 206 276
e 206 278
e 206 280
e 206 284
e 206 286
e 206 287
e 206 288
e 206 290
e 206 292
e 206 293
e 206 296
e 206 297
e 206 298
e 206 299
e 206 300
e 206 301
e 206 304
e 206 305
e 206 306
e 206 307
e 206 308
e 206 309
e 206 312
e 206 313
e 206 315
e 206 316
e 206 317
e 206 318
e 206 321
e 206 322
e 206 326
e 206 327
e 206 328
e 206 329
e 206 330
e 206 334
e 206 336
e 206 338
e 206 340
e 206 343
e 206 344
e 206 345
e 206 346
e 206 347
e 206 350
e 206 351
e 206 352
e 206 353
e 206 354
e 206 356
e 206 359
e 206 360
e 206 361
e 206 363
e 206 364
e 206 365
e 206 367
e 206 368
e 206 370
e 206 371
e 206 372
e 206 373
e 206 374
e 206 375
e 206 376
e 206 377
e 206 378
e 206 380
e 206 381
e 206 383
e 206 385
e 206 386
e 206 387
e 206 389
e 206 390
e 206 391
e 206 392
e 206 393
e 206 394
e 206 395
e 206 397
e 206 399
e 206 400
e 206 403
e 206 404
e 206 405
e 206 406
e 206 408
e 206 409
e 206 410
e 206 411
e 206 413
e 206 416
e 206 417
e 206 418
e 206 419
e 206 420
e 206 422
e 206 423
e 206 424
e 206 426
e 206 427
e 206 428
e 206 429
e 206 430
e 206 431
e 206 434
e 206 435
e 206 436
e 206 437
e 206 438
e 206 439
e 206 440
e 206 441
e 206 442
e 206 443
e 206 444
e 206 445
e 206 446
e 206 447
e 206 448
e 206 450
e 206 451
e 206 452
e 206 453
e 206 454
e 206 455
e 206 456
e 206 457
e 206 458
e 206 459
e 206 460
e 206 461
e 206 462
e 206 463
e 206 465
e 206 466
e 206 470
e 206 471
e 206 472
e 206 473
e 206 475
e 206 476
e 206 477
e 206 478
e 206 479
e 206 483
e 206 484
e 206 487
e 206 488
e 206 489
e 206 493
e 206 496
e 206 497
e 206 499
e 206 501
e 206 502
e 206 504
e 206 505
e 206 507
e 206 508
e 206 509
e 206 510
e 206 513
e 206 515
e 206 516
e 206 520
e 206 522
e 206 524
e 206 525
e 206 526
e 206 529
e 206 530
e 206 531
e 206 532
e 206 535
e 206 538
e 206 541
e 206 542
e 206 543
e 206 548
e 206 549
e 206 550
e 206 551
e 206 552
e 206 554
e 206 556
e 206 558
e 206 569
e 206 570
e 206 571
e 206 572
e 206 573
e 206 574
e 206 575
e 206 578
e 206 582
e 206 586
e 206 588
e 206 589
e 206 595
e 206 596
e 206 602
e 206 606
e 206 607
e 206 608
e 206 610
e 206 612
e 206 613
e 206 614
e 206 615
e 206 616
e 206 618
e 206 620
e 206 621
e 206 622
e 206 623
e 206 624
e 206 625
e 206 627
e 206 628
e 206 629
e 206 633
e 206 635
e 206 636
e 206 641
e 206 642
e 206 643
e 206 644
e 206 647
e 206 649
e 206 653
e 206 654
e 206 656
e 206 657
e 206 659
e 206 660
e 206 661
e 206 664
e 206 670
e 206 671
e 206 672
e 206 673
e 206 674
e 206 675
e 206 676
e 206 677
e 206 678
e 206 679
e 206 680
e 206 686
e 206 687
e 206 688
e 206 690
e 206 691
e 206 695
e 206 697
e 206 698
e 206 699
e 206 700
e 206 701
e 206 704
e 206 706
e 206 707
e 206 708
e 206 709
e 206 710
e 206 713
e 206 714
e 206 715
e 206 716
e 206 717
e 206 718
e 206 719
e 206 720
e 206 721
e 206 722
e 206 723
e 206 724
e 206 728
e 206 729
e 206 731
e 206 734
e 206 735
e 206 737
e 206 739
e 206 740
e 206 741
e 206 742
e 206 744
e 206 745
e 206 749
e 206 751
e 206 752
e 206 753
e 206 754
e 206 755
e 206 756
e 206 757
e 206 759
e 206 760
e 206 762
e 206 763
e 206 764
e 206 767
e 206 768
e 206 769
e 206 770
e 206 771
e 206 772
e 206 773
e 206 774
e 206 776
e 206 777
e 206 778
e 206 779
e 206 780
e 206 781
e 206 782
e 206 783
e 206 784
e 206 787
e 206 788
e 206 789
e 206 790
e 206 791
e 206 792
e 206 793
e 206 794
e 206 795
e 206 796
e 206 797
e 206 798
e 206 799
e 206 800
e 206 801
e 206 802
e 206 803
e 206 805
e 206 806
e 206 807
e 206 808
e 206 809
e 206 810
e 206 813
e 206 814
e 206 815
e 206 816
e 206 817
e 206 818
e 206 819
e 206 820
e 206 821
e 206 823
e 206 824
e 206 825
e 206 827
e 206 828
e 206 829
e 206 830
e 206 831
e 206 832
e 206 833
e 206 834
e 206 836
e 206 837
e 206 838
e 206 839
e 206 840
e 206 841
e 206 842
e 206 843
e 206 844
e 206 845
e 206 846
e 206 847
e 206 848
e 206 849
e 206 850
e 206 852
e 206 853
e 206 854
e 206 855
e 207 212
e 207 215
e 207 217
e 207 219
e 207 222
e 207 225
e 207 226
e 207 227
e 207 230
e 207 239
e 207 241
e 207 242
e 207 246
e 207 262
e 207 269
e 207 284
e 207 286
e 207 288
e 207 290
e 207 292
e 207 293
e 207 296
e 207 300
e 207 304
e 207 306
e 207 307
e 207 314
e 207 326
e 207 347
e 207 357
e 207 360
e 207 372
e 207 376
e 207 378
e 207 380
e 207 381
e 207 383
e 207 390
e 207 403
e 207 412
e 207 420
e 207 426
e 207 434
e 207 444
e 207 448
e 207 451
e 207 453
e 207 457
e 207 459
e 207 461
e 207 465
e 207 467
e 207 476
e 207 479
e 207 480
e 207 854
e 208 211
e 208 217
e 208 220
e 208 224
e 208 227
e 208 228
e 208 229
e 208 232
e 208 244
e 208 245
e 208 246
e 208 248
e 208 251
e 208 259
e 208 262
e 208 263
e 208 267
e 208 274
e 208 279
e 208 280
e 208 284
e 208 287
e 208 288
e 208 290
e 208 291
e 208 293
e 208 296
e 208 298
e 208 307
e 208 308
e 208 309
e 208 312
e 208 314
e 208 322
e 208 323
e 208 326
e 208 327
e 208 328
e 208 330
e 208 334
e 208 335
e 208 342
e 208 344
e 208 345
e 208 346
e 208 354
e 208 355
e 208 356
e 208 358
e 208 361
e 208 364
e 208 368
e 208 372
e 208 376
e 208 380
e 208 388
e 208 389
e 208 390
e 208 394
e 208 400
e 208 409
e 208 410
e 208 411
e 208 414
e 208 415
e 208 417
e 208 419
e 208 420
e 208 422
e 208 424
e 208 429
e 208 431
e 208 437
e 208 440
e 208 441
e 208 445
e 208 446
e 208 448
e 208 449
e 208 451
e 208 453
e 208 454
e 208 456
e 208 457
e 208 459
e 208 462
e 208 463
e 208 464
e 208 465
e 208 468
e 208 470
e 208 473
e 208 474
e 209 213
e 209 225
e 209 235
e 209 236
e 209 237
e 209 287
e 209 289
e 209 342
e 209 369
e 209 370
e 209 372
e 209 389
e 209 428
e 209 438
e 209 447
e 209 455
e 209 457
e 210 212
e 210 213
e 210 216
e 210 217
e 210 219
e 210 222
e 210 223
e 210 225
e 210 226
e 210 227
e 210 228
e 210 230
e 210 234
e 210 238
e 210 239
e 210 240
e 210 241
e 210 242
e 210 244
e 210 246
e 210 260
e 210 263
e 210 265
e 210 268
e 210 269
e 210 271
e 210 273
e 210 274
e 210 275
e 210 277
e 210 278
e 210 280
e 210 283
e 210 284
e 210 286
e 210 287
e 210 290
e 210 292
e 210 293
e 210 294
e 210 296
e 210 300
e 210 304
e 210 305
e 210 307
e 210 316
e 210 319
e 210 321
e 210 328
e 210 329
e 210 330
e 210 334
e 210 337
e 210 339
e 210 340
e 210 343
e 210 344
e 210 345
e 210 347
e 210 348
e 210 350
e 210 352
e 210 356
e 210 358
e 210 366
e 210 367
e 210 368
e 210 372
e 210 373
e 210 375
e 210 376
e 210 377
e 210 378
e 210 380
e 210 387
e 210 390
e 210 393
e 210 395
e 210 400
e 210 404
e 210 406
e 210 413
e 210 416
e 210 417
e 210 418
e 210 421
e 210 422
e 210 423
e 210 424
e 210 429
e 210 430
e 210 432
e 210 437
e 210 441
e 210 442
e 210 444
e 210 447
e 210 448
e 210 450
e 210 452
e 210 453
e 210 457
e 210 460
e 210 462
e 210 463
e 210 473
e 210 477
e 210 854
e 211 213
e 211 214
e 211 217
e 211 219
e 211 220
e 211 221
e 211 222
e 211 223
e 211 224
e 211 225
e 211 227
e 211 228
e 211 229
e 211 230
e 211 231
e 211 232
e 211 233
e 211 236
e 211 241
e 211 243
e 211 244
e 211 245
e 211 246
e 211 247
e 211 248
e 211 251
e 211 252
e 211 257
e 211 259
e 211 260
e 211 261
e 211 262
e 211 263
e 211 264
e 211 265
e 211 267
e 211 270
e 211 272
e 211 273
e 211 278
e 211 279
e 211 280
e 211 281
e 211 282
e 211 283
e 211 284
e 211 285
e 211 287
e 211 290
e 211 291
e 211 292
e 211 294
e 211 295
e 211 296
e 211 297
e 211 298
e 211 299
e 211 300
e 211 302
e 211 303
e 211 306
e 211 307
e 211 308
e 211 309
e 211 310
e 211 311
e 211 312
e 211 313
e 211 314
e 211 316
e 211 317
e 211 318
e 211 319
e 211 321
e 211 322
e 211 323
e 211 324
e 211 326
e 211 327
e 211 328
e 211 329
e 211 330
e 211 331
e 211 332
e 211 334
e 211 335
e 211 336
e 211 338
e 211 342
e 211 344
e 211 345
e 211 346
e 211 347
e 211 349
e 211 350
e 211 351
e 211 352
e 211 353
e 211 354
e 211 355
e 211 356
e 211 358
e 211 359
e 211 360
e 211 361
e 211 362
e 211 363
e 211 364
e 211 365
e 211 366
e 211 368
e 211 371
e 211 372
e 211 373
e 211 374
e 211 375
e 211 376
e 211 377
e 211 379
e 211 380
e 211 381
e 211 382
e 211 383
e 211 384
e 211 385
e 211 386
e 211 387
e 211 388
e 211 389
e 211 390
e 211 391
e 211 392
e 211 393
e 211 394
e 211 395
e 211 396
e 211 397
e 211 398
e 211 399
e 211 400
e 211 406
e 211 408
e 211 409
e 211 410
e 211 411
e 211 414
e 211 416
e 211 417
e 211 419
e 211 420
e 211 421
e 211 422
e 211 423
e 211 424
e 211 425
e 211 426
e 211 428
e 211 429
e 211 431
e 211 432
e 211 433
e 211 435
e 211 436
e 211 437
e 211 440
e 211 441
e 211 443
e 211 444
e 211 445
e 211 446
e 211 447
e 211 448
e 211 451
e 211 452
e 211 453
e 211 454
e 211 455
e 211 456
e 211 457
e 211 458
e 211 459
e 211 460
e 211 461
e 211 462
e 211 463
e 211 464
e 211 465
e 211 466
e 211 468
e 211 469
e 211 470
e 211 471
e 211 472
e 211 473
e 211 474
e 211 475
e 211 478
e 211 480
e 211 483
e 211 484
e 211 485
e 211 487
e 211 488
e 211 489
e 211 490
e 211 491
e 211 492
e 211 493
e 211 494
e 211 495
e 211 496
e 211 497
e 211 498
e 211 499
e 211 500
e 211 501
e 211 502
e 211 503
e 211 504
e 211 505
e 211 506
e 211 507
e 211 508
e 211 509
e 211 510
e 211 511
e 211 512
e 211 513
e 211 514
e 211 515
e 211 516
e 211 517
e 211 519
e 211 520
e 211 522
e 211 525
e 211 526
e 211 527
e 211 528
e 211 529
e 211 531
e 211 535
e 211 536
e 211 537
e 211 538
e 211 539
e 211 543
e 211 544
e 211 545
e 211 546
e 211 547
e 211 548
e 211 549
e 211 550
e 211 551
e 211 552
e 211 554
e 211 555
e 211 556
e 211 558
e 211 561
e 211 563
e 211 564
e 211 566
e 211 567
e 211 568
e 211 569
e 211 570
e 211 571
e 211 572
e 211 573
e 211 574
e 211 575
e 211 576
e 211 578
e 211 586
e 211 587
e 211 588
e 211 589
e 211 590
e 211 591
e 211 595
e 211 596
e 211 598
e 211 599
e 211 602
e 211 603
e 211 606
e 211 607
e 211 608
e 211 609
e 211 610
e 211 612
e 211 613
e 211 614
e 211 615
e 211 616
e 211 617
e 211 618
e 211 619
e 211 621
e 211 622
e 211 623
e 211 624
e 211 625
e 211 626
e 211 627
e 211 628
e 211 629
e 211 631
e 211 633
e 211 640
e 211 641
e 211 642
e 211 643
e 211 644
e 211 645
e 211 646
e 211 647
e 211 648
e 211 654
e 211 656
e 211 657
e 211 659
e 211 660
e 211 661
e 211 662
e 211 664
e 211 665
e 211 667
e 211 668
e 211 669
e 211 672
e 211 674
e 211 675
e 211 676
e 211 677
e 211 679
e 211 680
e 211 686
e 211 687
e 211 688
e 211 691
e 211 692
e 211 695
e 211 699
e 211 700
e 211 701
e 211 702
e 211 703
e 211 704
e 211 705
e 211 707
e 211 708
e 211 709
e 211 710
e 211 711
e 211 713
e 211 714
e 211 715
e 211 716
e 211 717
e 211 719
e 211 721
e 211 722
e 211 723
e 211 724
e 211 725
e 211 726
e 211 728
e 211 731
e 211 735
e 211 736
e 211 739
e 211 740
e 211 741
e 211 742
e 211 744
e 211 745
e 211 751
e 211 752
e 211 753
e 211 754
e 211 755
e 211 756
e 211 757
e 211 760
e 211 761
e 211 762
e 211 763
e 211 764
e 211 765
e 211 768
e 211 769
e 211 770
e 211 772
e 211 773
e 211 774
e 211 775
e 211 776
e 211 777
e 211 778
e 211 779
e 211 780
e 211 781
e 211 782
e 211 783
e 211 784
e 211 790
e 211 791
e 211 792
e 211 793
e 211 794
e 211 796
e 211 798
e 211 799
e 211 800
e 211 802
e 211 803
e 211 804
e 211 805
e 211 806
e 211 807
e 211 809
e 211 811
e 211 812
e 211 814
e 211 815
e 211 817
e 211 819
e 211 820
e 211 821
e 211 824
e 211 825
e 211 826
e 211 827
e 211 828
e 211 829
e 211 831
e 211 832
e 211 833
e 211 834
e 211 835
e 211 836
e 211 837
e 211 839
e 211 840
e 211 841
e 211 842
e 211 843
e 211 844
e 211 845
e 211 846
e 211 847
e 211 848
e 211 851
e 211 852
e 211 855
e 212 213
e 212 217
e 212 219
e 212 222
e 212 225
e 212 226
e 212 227
e 212 237
e 212 238
e 212 239
e 212 240
e 212 241
e 212 242
e 212 244
e 212 246
e 212 253
e 212 255
e 212 256
e 212 266
e 212 278
e 212 282
e 212 283
e 212 284
e 212 287
e 212 290
e 212 292
e 212 293
e 212 300
e 212 304
e 212 305
e 212 307
e 212 314
e 212 320
e 212 326
e 212 329
e 212 330
e 212 337
e 212 338
e 212 340
e 212 347
e 212 356
e 212 357
e 212 363
e 212 372
e 212 375
e 212 376
e 212 378
e 212 380
e 212 383
e 212 386
e 212 390
e 212 395
e 212 399
e 212 400
e 212 405
e 212 406
e 212 407
e 212 412
e 212 417
e 212 421
e 212 423
e 212 424
e 212 426
e 212 429
e 212 432
e 212 437
e 212 439
e 212 442
e 212 444
e 212 453
e 212 456
e 212 467
e 212 469
e 212 471
e 212 472
e 212 474
e 212 479
e 212 480
e 213 214
e 213 215
e 213 217
e 213 219
e 213 222
e 213 225
e 213 226
e 213 227
e 213 228
e 213 230
e 213 232
e 213 235
e 213 236
e 213 237
e 213 238
e 213 239
e 213 240
e 213 241
e 213 242
e 213 244
e 213 245
e 213 246
e 213 247
e 213 248
e 213 249
e 213 250
e 213 251
e 213 252
e 213 254
e 213 255
e 213 257
e 213 258
e 213 260
e 213 261
e 213 262
e 213 264
e 213 265
e 213 267
e 213 269
e 213 271
e 213 272
e 213 273
e 213 274
e 213 275
e 213 276
e 213 277
e 213 278
e 213 280
e 213 281
e 213 282
e 213 283
e 213 284
e 213 285
e 213 286
e 213 287
e 213 289
e 213 290
e 213 291
e 213 292
e 213 293
e 213 295
e 213 296
e 213 297
e 213 298
e 213 299
e 213 300
e 213 301
e 213 302
e 213 304
e 213 305
e 213 306
e 213 307
e 213 308
e 213 309
e 213 310
e 213 311
e 213 312
e 213 313
e 213 314
e 213 315
e 213 316
e 213 317
e 213 318
e 213 319
e 213 320
e 213 324
e 213 325
e 213 326
e 213 327
e 213 328
e 213 329
e 213 330
e 213 331
e 213 332
e 213 334
e 213 335
e 213 336
e 213 337
e 213 338
e 213 339
e 213 342
e 213 343
e 213 344
e 213 345
e 213 346
e 213 347
e 213 348
e 213 349
e 213 350
e 213 351
e 213 352
e 213 353
e 213 354
e 213 356
e 213 358
e 213 359
e 213 361
e 213 362
e 213 363
e 213 364
e 213 365
e 213 366
e 213 367
e 213 368
e 213 369
e 213 370
e 213 371
e 213 372
e 213 373
e 213 374
e 213 376
e 213 377
e 213 378
e 213 379
e 213 380
e 213 381
e 213 382
e 213 383
e 213 384
e 213 385
e 213 386
e 213 387
e 213 388
e 213 389
e 213 390
e 213 391
e 213 392
e 213 393
e 213 394
e 213 395
e 213 396
e 213 397
e 213 399
e 213 400
e 213 401
e 213 402
e 213 403
e 213 404
e 213 405
e 213 406
e 213 407
e 213 408
e 213 413
e 213 414
e 213 415
e 213 416
e 213 417
e 213 418
e 213 419
e 213 420
e 213 421
e 213 422
e 213 423
e 213 424
e 213 426
e 213 428
e 213 429
e 213 430
e 213 432
e 213 433
e 213 434
e 213 435
e 213 436
e 213 437
e 213 438
e 213 439
e 213 440
e 213 442
e 213 443
e 213 444
e 213 447
e 213 448
e 213 449
e 213 450
e 213 451
e 213 452
e 213 453
e 213 454
e 213 455
e 213 456
e 213 457
e 213 458
e 213 459
e 213 460
e 213 461
e 213 462
e 213 463
e 213 464
e 213 465
e 213 466
e 213 467
e 213 468
e 213 469
e 213 470
e 213 471
e 213 472
e 213 473
e 213 474
e 213 475
e 213 476
e 213 477
e 213 478
e 213 479
e 213 480
e 213 483
e 213 484
e 213 485
e 213 489
e 213 493
e 213 497
e 213 501
e 213 502
e 213 504
e 213 505
e 213 507
e 213 508
e 213 509
e 213 510
e 213 513
e 213 515
e 213 522
e 213 526
e 213 529
e 213 530
e 213 531
e 213 532
e 213 535
e 213 538
e 213 541
e 213 543
e 213 548
e 213 549
e 213 550
e 213 551
e 213 552
e 213 556
e 213 557
e 213 558
e 213 559
e 213 565
e 213 569
e 213 570
e 213 578
e 213 580
e 213 581
e 213 582
e 213 585
e 213 586
e 213 588
e 213 589
e 213 595
e 213 607
e 213 613
e 213 615
e 213 622
e 213 623
e 213 627
e 213 628
e 213 629
e 213 630
e 213 632
e 213 633
e 213 635
e 213 638
e 213 641
e 213 642
e 213 647
e 213 651
e 213 652
e 213 654
e 213 657
e 213 661
e 213 663
e 213 667
e 213 668
e 213 670
e 213 671
e 213 672
e 213 673
e 213 674
e 213 675
e 213 676
e 213 678
e 213 679
e 213 682
e 213 685
e 213 687
e 213 688
e 213 693
e 213 694
e 213 695
e 213 696
e 213 697
e 213 698
e 213 699
e 213 700
e 213 701
e 213 703
e 213 704
e 213 707
e 213 709
e 213 711
e 213 712
e 213 716
e 213 718
e 213 720
e 213 721
e 213 722
e 213 729
e 213 730
e 213 731
e 213 732
e 213 733
e 213 739
e 213 741
e 213 742
e 213 744
e 213 745
e 213 747
e 213 748
e 213 751
e 213 752
e 213 757
e 213 759
e 213 762
e 213 766
e 213 767
e 213 769
e 213 770
e 213 771
e 213 774
e 213 775
e 213 779
e 213 780
e 213 784
e 213 785
e 213 788
e 213 789
e 213 796
e 213 797
e 213 799
e 213 801
e 213 803
e 213 806
e 213 807
e 213 808
e 213 810
e 213 811
e 213 815
e 213 816
e 213 818
e 213 821
e 213 822
e 213 823
e 213 824
e 213 828
e 213 831
e 213 833
e 213 834
e 213 837
e 213 838
e 213 840
e 213 842
e 213 843
e 213 844
e 213 845
e 213 846
e 213 848
e 213 849
e 213 850
e 213 851
e 213 852
e 213 853
e 213 854
e 213 855
e 214 220
e 214 222
e 214 237
e 214 239
e 214 241
e 214 244
e 214 246
e 214 253
e 214 254
e 214 256
e 214 257
e 214 260
e 214 261
e 214 265
e 214 266
e 214 283
e 214 287
e 214 290
e 214 293
e 214 300
e 214 320
e 214 329
e 214 337
e 214 338
e 214 375
e 214 385
e 214 386
e 214 395
e 214 421
e 214 427
e 214 432
e 214 440
e 214 442
e 214 444
e 214 454
e 214 456
e 214 469
e 214 471
e 214 472
e 214 494
e 214 516
e 214 517
e 214 520
e 214 524
e 214 526
e 214 535
e 214 548
e 214 550
e 214 569
e 214 570
e 214 588
e 214 590
e 214 592
e 214 595
e 214 602
e 214 610
e 214 616
e 214 637
e 214 644
e 214 647
e 214 661
e 214 665
e 214 667
e 214 675
e 214 679
e 214 687
e 214 697
e 214 701
e 214 702
e 214 704
e 214 705
e 214 708
e 214 715
e 214 716
e 214 720
e 214 723
e 214 729
e 214 742
e 214 743
e 214 744
e 214 746
e 214 751
e 214 755
e 214 759
e 214 769
e 214 778
e 214 779
e 214 796
e 214 833
e 214 849
e 215 217
e 215 219
e 215 225
e 215 226
e 215 227
e 215 235
e 215 238
e 215 241
e 215 242
e 215 244
e 215 246
e 215 249
e 215 250
e 215 251
e 215 260
e 215 262
e 215 269
e 215 280
e 215 282
e 215 286
e 215 287
e 215 290
e 215 292
e 215 296
e 215 300
e 215 304
e 215 305
e 215 306
e 215 307
e 215 319
e 215 326
e 215 329
e 215 334
e 215 347
e 215 356
e 215 367
e 215 378
e 215 383
e 215 386
e 215 395
e 215 407
e 215 417
e 215 420
e 215 424
e 215 426
e 215 436
e 215 439
e 215 441
e 215 442
e 215 443
e 215 456
e 215 462
e 215 468
e 215 471
e 215 473
e 215 476
e 215 854
e 216 219
e 216 226
e 216 227
e 216 241
e 216 244
e 216 284
e 216 287
e 216 307
e 216 319
e 216 321
e 216 329
e 216 334
e 216 345
e 216 352
e 216 367
e 216 373
e 216 380
e 216 395
e 216 400
e 216 417
e 216 424
e 216 430
e 216 435
e 216 437
e 216 442
e 216 450
e 216 452
e 216 460
e 216 463
e 217 219
e 217 220
e 217 222
e 217 224
e 217 225
e 217 226
e 217 227
e 217 229
e 217 230
e 217 231
e 217 238
e 217 239
e 217 241
e 217 242
e 217 243
e 217 244
e 217 245
e 217 246
e 217 248
e 217 251
e 217 254
e 217 255
e 217 257
e 217 258
e 217 259
e 217 260
e 217 261
e 217 262
e 217 263
e 217 264
e 217 269
e 217 272
e 217 275
e 217 276
e 217 280
e 217 284
e 217 286
e 217 287
e 217 290
e 217 292
e 217 293
e 217 294
e 217 296
e 217 298
e 217 299
e 217 300
e 217 302
e 217 303
e 217 304
e 217 306
e 217 308
e 217 309
e 217 314
e 217 317
e 217 318
e 217 319
e 217 322
e 217 327
e 217 328
e 217 329
e 217 330
e 217 331
e 217 334
e 217 335
e 217 338
e 217 345
e 217 346
e 217 347
e 217 354
e 217 355
e 217 356
e 217 363
e 217 364
e 217 368
e 217 370
e 217 372
e 217 373
e 217 376
e 217 378
e 217 380
e 217 383
e 217 386
e 217 389
e 217 390
e 217 394
e 217 399
e 217 400
e 217 404
e 217 406
e 217 409
e 217 410
e 217 411
e 217 414
e 217 416
e 217 417
e 217 418
e 217 419
e 217 420
e 217 421
e 217 422
e 217 424
e 217 425
e 217 426
e 217 429
e 217 431
e 217 436
e 217 437
e 217 438
e 217 440
e 217 441
e 217 444
e 217 445
e 217 446
e 217 450
e 217 451
e 217 453
e 217 455
e 217 456
e 217 467
e 217 470
e 217 472
e 217 473
e 217 474
e 217 476
e 217 477
e 217 478
e 217 480
e 218 225
e 218 244
e 218 246
e 218 251
e 218 272
e 218 279
e 218 287
e 218 292
e 218 293
e 218 301
e 218 315
e 218 326
e 218 330
e 218 340
e 218 344
e 218 356
e 218 368
e 218 372
e 218 375
e 218 378
e 218 402
e 218 405
e 218 433
e 218 444
e 218 452
e 218 453
e 218 462
e 218 475
e 218 476
e 218 477
e 218 479
e 219 225
e 219 226
e 219 227
e 219 239
e 219 240
e 219 241
e 219 242
e 219 244
e 219 246
e 219 248
e 219 251
e 219 260
e 219 262
e 219 268
e 219 269
e 219 272
e 219 278
e 219 280
e 219 284
e 219 286
e 219 287
e 219 290
e 219 292
e 219 293
e 219 296
e 219 297
e 219 300
e 219 301
e 219 304
e 219 305
e 219 306
e 219 307
e 219 315
e 219 319
e 219 321
e 219 326
e 219 329
e 219 330
e 219 334
e 219 335
e 219 338
e 219 343
e 219 344
e 219 345
e 219 347
e 219 352
e 219 355
e 219 356
e 219 363
e 219 367
e 219 368
e 219 373
e 219 376
e 219 378
e 219 380
e 219 383
e 219 384
e 219 385
e 219 388
e 219 395
e 219 398
e 219 399
e 219 400
e 219 404
e 219 405
e 219 406
e 219 413
e 219 417
e 219 418
e 219 420
e 219 422
e 219 423
e 219 424
e 219 426
e 219 430
e 219 431
e 219 435
e 219 437
e 219 439
e 219 441
e 219 442
e 219 444
e 219 447
e 219 450
e 219 452
e 219 453
e 219 454
e 219 457
e 219 460
e 219 462
e 219 463
e 219 466
e 219 470
e 219 475
e 219 476
e 219 477
e 219 479
e 220 221
e 220 222
e 220 223
e 220 224
e 220 225
e 220 227
e 220 229
e 220 231
e 220 233
e 220 241
e 220 243
e 220 244
e 220 245
e 220 246
e 220 248
e 220 251
e 220 257
e 220 259
e 220 260
e 220 261
e 220 262
e 220 263
e 220 264
e 220 265
e 220 270
e 220 272
e 220 273
e 220 274
e 220 278
e 220 280
e 220 282
e 220 287
e 220 288
e 220 290
e 220 292
e 220 293
e 220 294
e 220 296
e 220 298
e 220 299
e 220 300
e 220 302
e 220 303
e 220 306
e 220 308
e 220 309
e 220 310
e 220 312
e 220 313
e 220 314
e 220 316
e 220 318
e 220 322
e 220 323
e 220 324
e 220 327
e 220 328
e 220 330
e 220 331
e 220 334
e 220 338
e 220 342
e 220 346
e 220 347
e 220 351
e 220 353
e 220 354
e 220 355
e 220 356
e 220 358
e 220 359
e 220 360
e 220 361
e 220 363
e 220 364
e 220 366
e 220 368
e 220 372
e 220 373
e 220 375
e 220 376
e 220 380
e 220 385
e 220 388
e 220 393
e 220 394
e 220 396
e 220 398
e 220 399
e 220 400
e 220 403
e 220 408
e 220 414
e 220 417
e 220 419
e 220 420
e 220 422
e 220 425
e 220 426
e 220 427
e 220 429
e 220 431
e 220 437
e 220 440
e 220 441
e 220 443
e 220 444
e 220 445
e 220 446
e 220 447
e 220 448
e 220 449
e 220 452
e 220 453
e 220 456
e 220 457
e 220 458
e 220 459
e 220 461
e 220 464
e 220 465
e 220 468
e 220 470
e 220 474
e 220 475
e 220 478
e 220 483
e 220 484
e 220 485
e 220 486
e 220 487
e 220 488
e 220 489
e 220 493
e 220 494
e 220 496
e 220 497
e 220 499
e 220 501
e 220 502
e 220 504
e 220 505
e 220 507
e 220 508
e 220 509
e 220 510
e 220 513
e 220 514
e 220 515
e 220 516
e 220 517
e 220 519
e 220 520
e 220 522
e 220 526
e 220 527
e 220 528
e 220 529
e 220 531
e 220 535
e 220 538
e 220 543
e 220 544
e 220 545
e 220 546
e 220 547
e 220 548
e 220 549
e 220 550
e 220 551
e 220 552
e 220 563
e 220 567
e 220 568
e 220 569
e 220 570
e 220 571
e 220 572
e 220 573
e 220 574
e 220 575
e 220 576
e 220 577
e 220 578
e 220 586
e 220 587
e 220 588
e 220 589
e 220 590
e 220 592
e 220 593
e 220 594
e 220 595
e 220 596
e 220 598
e 220 599
e 220 602
e 220 603
e 220 606
e 220 607
e 220 608
e 220 609
e 220 610
e 220 611
e 220 612
e 220 613
e 220 614
e 220 615
e 220 616
e 220 617
e 220 618
e 220 619
e 220 620
e 220 621
e 220 622
e 220 623
e 220 624
e 220 625
e 220 626
e 220 627
e 220 629
e 220 633
e 220 634
e 220 637
e 220 640
e 220 641
e 220 642
e 220 643
e 220 647
e 220 650
e 220 654
e 220 656
e 220 657
e 220 659
e 220 661
e 220 663
e 220 664
e 220 665
e 220 667
e 220 668
e 220 669
e 220 672
e 220 674
e 220 675
e 220 676
e 220 677
e 220 679
e 220 680
e 220 686
e 220 687
e 220 688
e 220 691
e 220 692
e 220 695
e 220 696
e 220 697
e 220 701
e 220 702
e 220 704
e 220 705
e 220 706
e 220 707
e 220 708
e 220 709
e 220 710
e 220 712
e 220 713
e 220 714
e 220 715
e 220 716
e 220 717
e 220 718
e 220 719
e 220 721
e 220 722
e 220 724
e 220 725
e 220 726
e 220 727
e 220 728
e 220 731
e 220 735
e 220 736
e 220 737
e 220 738
e 220 739
e 220 740
e 220 741
e 220 742
e 220 744
e 220 745
e 220 748
e 220 752
e 220 753
e 220 754
e 220 755
e 220 756
e 220 757
e 220 759
e 220 760
e 220 761
e 220 762
e 220 763
e 220 764
e 220 765
e 220 768
e 220 769
e 220 770
e 220 772
e 220 774
e 220 775
e 220 776
e 220 777
e 220 778
e 220 779
e 220 780
e 220 781
e 220 782
e 220 784
e 220 786
e 220 787
e 220 789
e 220 790
e 220 794
e 220 796
e 220 798
e 220 799
e 220 800
e 220 803
e 220 804
e 220 806
e 220 807
e 220 809
e 220 811
e 220 812
e 220 813
e 220 814
e 220 817
e 220 819
e 220 820
e 220 822
e 220 824
e 220 825
e 220 826
e 220 827
e 220 828
e 220 829
e 220 830
e 220 831
e 220 832
e 220 833
e 220 835
e 220 836
e 220 837
e 220 839
e 220 840
e 220 841
e 220 842
e 220 844
e 220 845
e 220 846
e 220 848
e 220 849
e 220 850
e 220 852
e 220 853
e 220 854
e 221 222
e 221 224
e 221 229
e 221 233
e 221 243
e 221 244
e 221 245
e 221 246
e 221 248
e 221 251
e 221 263
e 221 270
e 221 280
e 221 282
e 221 292
e 221 293
e 221 299
e 221 310
e 221 312
e 221 324
e 221 334
e 221 346
e 221 347
e 221 353
e 221 354
e 221 360
e 221 361
e 221 368
e 221 388
e 221 394
e 221 403
e 221 408
e 221 417
e 221 422
e 221 445
e 221 446
e 221 453
e 221 456
e 221 458
e 221 461
e 221 475
e 221 854
e 222 223
e 222 225
e 222 226
e 222 227
e 222 228
e 222 229
e 222 230
e 222 232
e 222 233
e 222 236
e 222 237
e 222 239
e 222 241
e 222 243
e 222 245
e 222 246
e 222 248
e 222 251
e 222 253
e 222 254
e 222 256
e 222 257
e 222 258
e 222 260
e 222 263
e 222 264
e 222 266
e 222 267
e 222 270
e 222 271
e 222 272
e 222 273
e 222 274
e 222 275
e 222 277
e 222 279
e 222 280
e 222 282
e 222 283
e 222 284
e 222 285
e 222 286
e 222 287
e 222 289
e 222 290
e 222 291
e 222 292
e 222 293
e 222 295
e 222 296
e 222 299
e 222 300
e 222 301
e 222 307
e 222 310
e 222 311
e 222 312
e 222 314
e 222 315
e 222 316
e 222 319
e 222 320
e 222 322
e 222 323
e 222 324
e 222 326
e 222 327
e 222 329
e 222 330
e 222 332
e 222 333
e 222 334
e 222 335
e 222 336
e 222 337
e 222 338
e 222 339
e 222 341
e 222 342
e 222 344
e 222 345
e 222 346
e 222 347
e 222 348
e 222 351
e 222 353
e 222 354
e 222 356
e 222 357
e 222 358
e 222 359
e 222 360
e 222 361
e 222 364
e 222 366
e 222 367
e 222 368
e 222 372
e 222 374
e 222 375
e 222 376
e 222 377
e 222 378
e 222 379
e 222 380
e 222 383
e 222 384
e 222 386
e 222 388
e 222 389
e 222 390
e 222 394
e 222 395
e 222 396
e 222 398
e 222 400
e 222 401
e 222 402
e 222 404
e 222 405
e 222 408
e 222 412
e 222 413
e 222 416
e 222 417
e 222 418
e 222 421
e 222 422
e 222 423
e 222 425
e 222 426
e 222 429
e 222 431
e 222 432
e 222 433
e 222 436
e 222 437
e 222 438
e 222 441
e 222 442
e 222 443
e 222 444
e 222 447
e 222 449
e 222 450
e 222 452
e 222 453
e 222 454
e 222 456
e 222 457
e 222 458
e 222 460
e 222 462
e 222 464
e 222 465
e 222 466
e 222 467
e 222 469
e 222 471
e 222 472
e 222 473
e 222 474
e 222 475
e 222 476
e 222 477
e 222 478
e 222 479
e 222 480
e 222 854
e 223 225
e 223 227
e 223 236
e 223 264
e 223 265
e 223 269
e 223 280
e 223 283
e 223 289
e 223 290
e 223 300
e 223 316
e 223 319
e 223 328
e 223 330
e 223 338
e 223 339
e 223 348
e 223 350
e 223 358
e 223 359
e 223 368
e 223 375
e 223 377
e 223 386
e 223 393
e 223 395
e 223 400
e 223 418
e 223 422
e 223 432
e 223 443
e 223 448
e 223 469
e 223 478
e 223 484
e 223 497
e 223 498
e 223 499
e 223 501
e 223 503
e 223 504
e 223 505
e 223 507
e 223 508
e 223 509
e 223 511
e 223 513
e 223 516
e 223 535
e 223 550
e 223 567
e 223 568
e 223 586
e 223 588
e 223 589
e 223 591
e 223 595
e 223 613
e 223 616
e 223 640
e 223 641
e 223 642
e 223 643
e 223 654
e 223 664
e 223 674
e 223 679
e 223 688
e 223 704
e 223 707
e 223 717
e 223 719
e 223 739
e 223 742
e 223 744
e 223 756
e 223 762
e 223 774
e 223 784
e 223 804
e 223 807
e 223 809
e 224 229
e 224 231
e 224 234
e 224 243
e 224 244
e 224 248
e 224 251
e 224 260
e 224 261
e 224 262
e 224 263
e 224 264
e 224 280
e 224 287
e 224 288
e 224 290
e 224 292
e 224 293
e 224 294
e 224 296
e 224 300
e 224 302
e 224 303
e 224 308
e 224 309
e 224 312
e 224 314
e 224 322
e 224 323
e 224 327
e 224 330
e 224 331
e 224 334
e 224 342
e 224 346
e 224 347
e 224 354
e 224 355
e 224 356
e 224 360
e 224 361
e 224 364
e 224 368
e 224 372
e 224 376
e 224 380
e 224 388
e 224 394
e 224 403
e 224 417
e 224 419
e 224 420
e 224 422
e 224 429
e 224 431
e 224 437
e 224 440
e 224 441
e 224 445
e 224 446
e 224 448
e 224 449
e 224 453
e 224 456
e 224 458
e 224 459
e 224 461
e 224 464
e 224 465
e 224 472
e 224 475
e 224 854
e 225 226
e 225 227
e 225 228
e 225 230
e 225 232
e 225 235
e 225 236
e 225 237
e 225 238
e 225 239
e 225 240
e 225 241
e 225 242
e 225 244
e 225 245
e 225 246
e 225 248
e 225 251
e 225 255
e 225 257
e 225 260
e 225 261
e 225 262
e 225 264
e 225 265
e 225 267
e 225 269
e 225 272
e 225 274
e 225 278
e 225 279
e 225 280
e 225 286
e 225 287
e 225 289
e 225 290
e 225 292
e 225 293
e 225 295
e 225 296
e 225 298
e 225 300
e 225 301
e 225 304
e 225 305
e 225 306
e 225 307
e 225 310
e 225 313
e 225 314
e 225 315
e 225 316
e 225 317
e 225 318
e 225 319
e 225 322
e 225 325
e 225 326
e 225 327
e 225 328
e 225 329
e 225 330
e 225 331
e 225 334
e 225 335
e 225 336
e 225 338
e 225 339
e 225 340
e 225 342
e 225 343
e 225 344
e 225 346
e 225 347
e 225 348
e 225 349
e 225 350
e 225 351
e 225 354
e 225 356
e 225 358
e 225 359
e 225 364
e 225 366
e 225 368
e 225 369
e 225 370
e 225 371
e 225 372
e 225 373
e 225 374
e 225 375
e 225 376
e 225 377
e 225 378
e 225 379
e 225 380
e 225 381
e 225 382
e 225 383
e 225 384
e 225 387
e 225 389
e 225 391
e 225 392
e 225 393
e 225 394
e 225 395
e 225 398
e 225 400
e 225 401
e 225 402
e 225 405
e 225 406
e 225 413
e 225 417
e 225 422
e 225 424
e 225 425
e 225 426
e 225 428
e 225 429
e 225 430
e 225 432
e 225 433
e 225 435
e 225 437
e 225 438
e 225 444
e 225 447
e 225 448
e 225 449
e 225 451
e 225 452
e 225 453
e 225 454
e 225 455
e 225 456
e 225 457
e 225 458
e 225 459
e 225 460
e 225 461
e 225 462
e 225 463
e 225 464
e 225 466
e 225 468
e 225 469
e 225 471
e 225 474
e 225 475
e 225 476
e 225 477
e 225 478
e 225 479
e 225 480
e 225 483
e 225 484
e 225 485
e 225 486
e 225 489
e 225 493
e 225 501
e 225 502
e 225 504
e 225 505
e 225 508
e 225 509
e 225 510
e 225 513
e 225 514
e 225 515
e 225 516
e 225 520
e 225 522
e 225 525
e 225 529
e 225 531
e 225 534
e 225 535
e 225 538
e 225 543
e 225 548
e 225 549
e 225 550
e 225 551
e 225 552
e 225 554
e 225 555
e 225 556
e 225 558
e 225 563
e 225 569
e 225 570
e 225 576
e 225 578
e 225 586
e 225 589
e 225 595
e 225 601
e 225 606
e 225 607
e 225 610
e 225 613
e 225 615
e 225 616
e 225 623
e 225 624
e 225 625
e 225 627
e 225 628
e 225 629
e 225 630
e 225 633
e 225 639
e 225 641
e 225 642
e 225 647
e 225 651
e 225 654
e 225 655
e 225 657
e 225 658
e 225 660
e 225 661
e 225 667
e 225 668
e 225 669
e 225 670
e 225 671
e 225 672
e 225 674
e 225 675
e 225 676
e 225 677
e 225 679
e 225 687
e 225 688
e 225 691
e 225 695
e 225 697
e 225 700
e 225 701
e 225 707
e 225 709
e 225 711
e 225 717
e 225 718
e 225 720
e 225 721
e 225 722
e 225 725
e 225 727
e 225 729
e 225 730
e 225 731
e 225 732
e 225 735
e 225 737
e 225 738
e 225 739
e 225 740
e 225 741
e 225 742
e 225 744
e 225 745
e 225 746
e 225 748
e 225 749
e 225 751
e 225 753
e 225 757
e 225 759
e 225 766
e 225 767
e 225 768
e 225 769
e 225 772
e 225 773
e 225 774
e 225 775
e 225 776
e 225 777
e 225 779
e 225 781
e 225 782
e 225 785
e 225 786
e 225 789
e 225 794
e 225 796
e 225 797
e 225 799
e 225 800
e 225 803
e 225 804
e 225 805
e 225 806
e 225 807
e 225 808
e 225 810
e 225 811
e 225 812
e 225 814
e 225 816
e 225 821
e 225 822
e 225 823
e 225 824
e 225 826
e 225 827
e 225 828
e 225 829
e 225 830
e 225 831
e 225 832
e 225 833
e 225 834
e 225 835
e 225 840
e 225 842
e 225 844
e 225 845
e 225 846
e 225 849
e 225 850
e 225 851
e 225 852
e 225 853
e 225 854
e 225 855
e 226 227
e 226 230
e 226 239
e 226 241
e 226 242
e 226 244
e 226 246
e 226 262
e 226 268
e 226 269
e 226 271
e 226 273
e 226 274
e 226 277
e 226 283
e 226 284
e 226 286
e 226 287
e 226 290
e 226 292
e 226 300
e 226 304
e 226 306
e 226 307
e 226 316
e 226 321
e 226 326
e 226 329
e 226 334
e 226 337
e 226 343
e 226 345
e 226 347
e 226 352
e 226 356
e 226 357
e 226 366
e 226 367
e 226 372
e 226 373
e 226 376
e 226 378
e 226 380
e 226 383
e 226 390
e 226 395
e 226 400
e 226 404
e 226 412
e 226 413
e 226 417
e 226 418
e 226 421
e 226 422
e 226 424
e 226 426
e 226 430
e 226 432
e 226 437
e 226 442
e 226 444
e 226 450
e 226 452
e 226 460
e 226 463
e 226 467
e 226 476
e 226 479
e 227 228
e 227 229
e 227 230
e 227 234
e 227 235
e 227 236
e 227 238
e 227 239
e 227 240
e 227 241
e 227 242
e 227 244
e 227 245
e 227 246
e 227 247
e 227 248
e 227 249
e 227 250
e 227 251
e 227 257
e 227 260
e 227 261
e 227 262
e 227 263
e 227 264
e 227 265
e 227 267
e 227 268
e 227 269
e 227 271
e 227 272
e 227 273
e 227 274
e 227 277
e 227 278
e 227 279
e 227 280
e 227 281
e 227 282
e 227 283
e 227 284
e 227 285
e 227 286
e 227 287
e 227 289
e 227 290
e 227 291
e 227 292
e 227 293
e 227 294
e 227 296
e 227 299
e 227 300
e 227 301
e 227 302
e 227 304
e 227 305
e 227 306
e 227 307
e 227 309
e 227 310
e 227 315
e 227 316
e 227 317
e 227 318
e 227 319
e 227 321
e 227 322
e 227 326
e 227 327
e 227 328
e 227 329
e 227 330
e 227 332
e 227 334
e 227 335
e 227 337
e 227 338
e 227 339
e 227 342
e 227 343
e 227 344
e 227 345
e 227 346
e 227 347
e 227 348
e 227 349
e 227 350
e 227 351
e 227 352
e 227 353
e 227 354
e 227 355
e 227 356
e 227 358
e 227 359
e 227 363
e 227 366
e 227 367
e 227 368
e 227 369
e 227 370
e 227 372
e 227 373
e 227 374
e 227 376
e 227 377
e 227 378
e 227 380
e 227 383
e 227 385
e 227 386
e 227 387
e 227 388
e 227 389
e 227 390
e 227 393
e 227 394
e 227 395
e 227 396
e 227 397
e 227 398
e 227 399
e 227 400
e 227 402
e 227 404
e 227 405
e 227 406
e 227 407
e 227 408
e 227 409
e 227 410
e 227 411
e 227 413
e 227 414
e 227 415
e 227 416
e 227 417
e 227 418
e 227 420
e 227 421
e 227 422
e 227 423
e 227 424
e 227 426
e 227 429
e 227 430
e 227 431
e 227 432
e 227 435
e 227 437
e 227 438
e 227 439
e 227 440
e 227 441
e 227 442
e 227 443
e 227 444
e 227 445
e 227 446
e 227 447
e 227 448
e 227 449
e 227 450
e 227 451
e 227 452
e 227 453
e 227 454
e 227 456
e 227 457
e 227 458
e 227 460
e 227 461
e 227 462
e 227 463
e 227 465
e 227 466
e 227 468
e 227 469
e 227 470
e 227 473
e 227 474
e 227 475
e 227 476
e 227 477
e 227 479
e 227 484
e 227 485
e 227 488
e 227 494
e 227 501
e 227 502
e 227 505
e 227 510
e 227 516
e 227 520
e 227 522
e 227 526
e 227 527
e 227 528
e 227 538
e 227 550
e 227 552
e 227 577
e 227 578
e 227 587
e 227 588
e 227 596
e 227 603
e 227 607
e 227 612
e 227 614
e 227 615
e 227 616
e 227 618
e 227 621
e 227 623
e 227 627
e 227 642
e 227 647
e 227 650
e 227 656
e 227 657
e 227 665
e 227 675
e 227 676
e 227 686
e 227 687
e 227 692
e 227 701
e 227 706
e 227 716
e 227 721
e 227 725
e 227 735
e 227 736
e 227 740
e 227 742
e 227 744
e 227 745
e 227 755
e 227 760
e 227 769
e 227 774
e 227 778
e 227 790
e 227 799
e 227 822
e 227 827
e 227 830
e 227 835
e 227 836
e 227 839
e 227 845
e 227 848
e 227 854
e 228 241
e 228 244
e 228 246
e 228 247
e 228 248
e 228 251
e 228 260
e 228 262
e 228 267
e 228 272
e 228 274
e 228 275
e 228 279
e 228 281
e 228 282
e 228 284
e 228 285
e 228 287
e 228 290
e 228 291
e 228 292
e 228 293
e 228 295
e 228 296
e 228 299
e 228 300
e 228 302
e 228 307
e 228 311
e 228 313
e 228 319
e 228 325
e 228 326
e 228 327
e 228 330
e 228 332
e 228 334
e 228 335
e 228 338
e 228 342
e 228 344
e 228 345
e 228 346
e 228 356
e 228 358
e 228 367
e 228 372
e 228 377
e 228 379
e 228 380
e 228 384
e 228 388
e 228 389
e 228 390
e 228 397
e 228 400
e 228 401
e 228 413
e 228 414
e 228 415
e 228 416
e 228 417
e 228 424
e 228 428
e 228 429
e 228 433
e 228 434
e 228 435
e 228 436
e 228 438
e 228 443
e 228 447
e 228 450
e 228 452
e 228 453
e 228 454
e 228 455
e 228 456
e 228 457
e 228 458
e 228 460
e 228 462
e 228 463
e 228 466
e 228 471
e 228 473
e 228 474
e 228 477
e 228 478
e 228 480
e 228 854
e 229 233
e 229 243
e 229 244
e 229 245
e 229 246
e 229 248
e 229 251
e 229 261
e 229 262
e 229 263
e 229 270
e 229 280
e 229 282
e 229 284
e 229 287
e 229 290
e 229 296
e 229 299
e 229 308
e 229 309
e 229 310
e 229 312
e 229 314
e 229 322
e 229 323
e 229 324
e 229 327
e 229 334
e 229 335
e 229 341
e 229 342
e 229 345
e 229 346
e 229 353
e 229 354
e 229 360
e 229 361
e 229 364
e 229 368
e 229 372
e 229 376
e 229 388
e 229 390
e 229 394
e 229 400
e 229 408
e 229 409
e 229 410
e 229 411
e 229 414
e 229 417
e 229 419
e 229 420
e 229 422
e 229 424
e 229 425
e 229 429
e 229 431
e 229 437
e 229 441
e 229 445
e 229 446
e 229 451
e 229 453
e 229 457
e 229 470
e 229 475
e 230 239
e 230 241
e 230 244
e 230 251
e 230 260
e 230 267
e 230 271
e 230 272
e 230 273
e 230 274
e 230 277
e 230 283
e 230 287
e 230 288
e 230 292
e 230 293
e 230 296
e 230 299
e 230 300
e 230 302
e 230 314
e 230 316
e 230 317
e 230 318
e 230 325
e 230 329
e 230 330
e 230 332
e 230 334
e 230 337
e 230 342
e 230 347
e 230 349
e 230 356
e 230 360
e 230 366
e 230 367
e 230 372
e 230 377
e 230 380
e 230 381
e 230 382
e 230 384
e 230 389
e 230 390
e 230 392
e 230 395
e 230 396
e 230 403
e 230 415
e 230 416
e 230 417
e 230 420
e 230 421
e 230 429
e 230 432
e 230 434
e 230 440
e 230 448
e 230 449
e 230 451
e 230 453
e 230 455
e 230 456
e 230 457
e 230 459
e 230 460
e 230 461
e 230 462
e 230 464
e 230 465
e 230 468
e 230 472
e 230 473
e 230 854
e 231 244
e 231 247
e 231 251
e 231 260
e 231 262
e 231 263
e 231 264
e 231 284
e 231 290
e 231 292
e 231 294
e 231 296
e 231 300
e 231 302
e 231 303
e 231 327
e 231 330
e 231 331
e 231 334
e 231 347
e 231 355
e 231 363
e 231 368
e 231 376
e 231 399
e 231 400
e 231 425
e 231 429
e 231 431
e 232 247
e 232 251
e 232 252
e 232 259
e 232 260
e 232 262
e 232 272
e 232 274
e 232 279
e 232 282
e 232 284
e 232 287
e 232 291
e 232 292
e 232 298
e 232 299
e 232 307
e 232 308
e 232 309
e 232 310
e 232 322
e 232 328
e 232 330
e 232 334
e 232 336
e 232 344
e 232 347
e 232 351
e 232 358
e 232 365
e 232 368
e 232 372
e 232 374
e 232 375
e 232 376
e 232 380
e 232 382
e 232 385
e 232 387
e 232 391
e 232 393
e 232 398
e 232 400
e 232 414
e 232 415
e 232 419
e 232 425
e 232 428
e 232 433
e 232 456
e 232 468
e 232 473
e 232 477
e 233 235
e 233 243
e 233 245
e 233 246
e 233 262
e 233 263
e 233 270
e 233 280
e 233 281
e 233 282
e 233 284
e 233 287
e 233 293
e 233 299
e 233 310
e 233 312
e 233 315
e 233 324
e 233 326
e 233 333
e 233 334
e 233 336
e 233 341
e 233 346
e 233 353
e 233 354
e 233 360
e 233 361
e 233 372
e 233 388
e 233 398
e 233 400
e 233 408
e 233 414
e 233 425
e 233 453
e 233 462
e 233 475
e 233 479
e 234 246
e 234 260
e 234 263
e 234 264
e 234 280
e 234 286
e 234 287
e 234 292
e 234 294
e 234 300
e 234 302
e 234 303
e 234 304
e 234 314
e 234 329
e 234 330
e 234 331
e 234 342
e 234 356
e 234 366
e 234 387
e 234 394
e 234 417
e 234 440
e 234 441
e 234 472
e 235 236
e 235 237
e 235 238
e 235 241
e 235 244
e 235 245
e 235 248
e 235 251
e 235 260
e 235 261
e 235 262
e 235 264
e 235 267
e 235 271
e 235 274
e 235 276
e 235 277
e 235 281
e 235 282
e 235 284
e 235 285
e 235 287
e 235 289
e 235 290
e 235 291
e 235 293
e 235 299
e 235 302
e 235 305
e 235 306
e 235 307
e 235 315
e 235 319
e 235 326
e 235 329
e 235 330
e 235 332
e 235 333
e 235 334
e 235 336
e 235 338
e 235 342
e 235 344
e 235 345
e 235 347
e 235 348
e 235 349
e 235 353
e 235 356
e 235 367
e 235 369
e 235 370
e 235 372
e 235 380
e 235 388
e 235 389
e 235 398
e 235 414
e 235 420
e 235 424
e 235 428
e 235 430
e 235 435
e 235 438
e 235 439
e 235 443
e 235 447
e 235 452
e 235 454
e 235 455
e 235 457
e 235 462
e 235 479
e 236 237
e 236 242
e 236 248
e 236 251
e 236 257
e 236 260
e 236 261
e 236 264
e 236 265
e 236 269
e 236 272
e 236 283
e 236 287
e 236 289
e 236 290
e 236 300
e 236 302
e 236 314
e 236 316
e 236 319
e 236 330
e 236 332
e 236 338
e 236 339
e 236 342
e 236 344
e 236 347
e 236 348
e 236 356
e 236 359
e 236 367
e 236 368
e 236 369
e 236 370
e 236 372
e 236 377
e 236 386
e 236 388
e 236 389
e 236 390
e 236 394
e 236 395
e 236 396
e 236 417
e 236 418
e 236 421
e 236 422
e 236 428
e 236 432
e 236 435
e 236 438
e 236 443
e 236 447
e 236 452
e 236 454
e 236 455
e 236 456
e 236 457
e 236 461
e 236 462
e 236 464
e 236 465
e 236 469
e 237 241
e 237 246
e 237 253
e 237 254
e 237 255
e 237 256
e 237 266
e 237 272
e 237 283
e 237 284
e 237 287
e 237 289
e 237 290
e 237 295
e 237 307
e 237 314
e 237 319
e 237 320
e 237 329
e 237 330
e 237 337
e 237 338
e 237 339
e 237 342
e 237 343
e 237 346
e 237 347
e 237 369
e 237 370
e 237 372
e 237 380
e 237 386
e 237 389
e 237 395
e 237 407
e 237 413
e 237 417
e 237 421
e 237 422
e 237 428
e 237 430
e 237 432
e 237 438
e 237 442
e 237 447
e 237 453
e 237 455
e 237 456
e 237 457
e 237 463
e 237 469
e 237 471
e 237 472
e 237 474
e 237 478
e 237 480
e 238 241
e 238 242
e 238 244
e 238 246
e 238 262
e 238 287
e 238 290
e 238 293
e 238 300
e 238 304
e 238 305
e 238 306
e 238 307
e 238 319
e 238 347
e 238 356
e 238 372
e 238 376
e 238 378
e 238 380
e 238 406
e 238 420
e 238 424
e 238 429
e 238 439
e 238 444
e 238 453
e 239 240
e 239 241
e 239 242
e 239 244
e 239 246
e 239 254
e 239 257
e 239 258
e 239 260
e 239 271
e 239 272
e 239 273
e 239 274
e 239 277
e 239 278
e 239 282
e 239 283
e 239 284
e 239 287
e 239 292
e 239 293
e 239 296
e 239 299
e 239 300
e 239 301
e 239 304
e 239 305
e 239 307
e 239 314
e 239 315
e 239 316
e 239 317
e 239 318
e 239 320
e 239 326
e 239 330
e 239 334
e 239 337
e 239 340
e 239 342
e 239 344
e 239 346
e 239 347
e 239 349
e 239 356
e 239 357
e 239 363
e 239 366
e 239 367
e 239 368
e 239 372
e 239 375
e 239 376
e 239 378
e 239 380
e 239 383
e 239 390
e 239 395
e 239 399
e 239 400
e 239 404
e 239 405
e 239 406
e 239 412
e 239 415
e 239 421
e 239 423
e 239 424
e 239 426
e 239 429
e 239 432
e 239 436
e 239 437
e 239 439
e 239 440
e 239 444
e 239 449
e 239 451
e 239 452
e 239 453
e 239 456
e 239 457
e 239 462
e 239 467
e 239 468
e 239 469
e 239 472
e 239 475
e 239 476
e 239 477
e 239 478
e 239 479
e 239 480
e 239 854
e 240 241
e 240 242
e 240 244
e 240 260
e 240 284
e 240 287
e 240 292
e 240 293
e 240 300
e 240 304
e 240 305
e 240 326
e 240 330
e 240 340
e 240 344
e 240 347
e 240 356
e 240 368
e 240 372
e 240 375
e 240 376
e 240 378
e 240 380
e 240 399
e 240 406
e 240 423
e 240 424
e 240 439
e 240 444
e 240 452
e 240 457
e 240 462
e 240 476
e 240 477
e 240 479
e 241 242
e 241 244
e 241 246
e 241 249
e 241 250
e 241 251
e 241 253
e 241 254
e 241 256
e 241 257
e 241 258
e 241 260
e 241 262
e 241 264
e 241 265
e 241 266
e 241 268
e 241 269
e 241 271
e 241 272
e 241 273
e 241 274
e 241 275
e 241 276
e 241 277
e 241 280
e 241 282
e 241 283
e 241 284
e 241 286
e 241 287
e 241 290
e 241 292
e 241 293
e 241 296
e 241 299
e 241 300
e 241 304
e 241 305
e 241 306
e 241 307
e 241 309
e 241 314
e 241 316
e 241 317
e 241 318
e 241 319
e 241 320
e 241 321
e 241 326
e 241 329
e 241 330
e 241 334
e 241 337
e 241 338
e 241 340
e 241 343
e 241 344
e 241 345
e 241 346
e 241 347
e 241 351
e 241 352
e 241 354
e 241 356
e 241 358
e 241 366
e 241 367
e 241 368
e 241 370
e 241 372
e 241 373
e 241 375
e 241 376
e 241 377
e 241 378
e 241 380
e 241 383
e 241 385
e 241 386
e 241 390
e 241 393
e 241 394
e 241 395
e 241 396
e 241 398
e 241 399
e 241 400
e 241 404
e 241 406
e 241 407
e 241 413
e 241 416
e 241 417
e 241 418
e 241 420
e 241 421
e 241 422
e 241 423
e 241 424
e 241 426
e 241 427
e 241 429
e 241 430
e 241 432
e 241 436
e 241 437
e 241 438
e 241 439
e 241 440
e 241 442
e 241 443
e 241 444
e 241 447
e 241 450
e 241 452
e 241 453
e 241 454
e 241 455
e 241 456
e 241 457
e 241 459
e 241 460
e 241 462
e 241 463
e 241 467
e 241 468
e 241 469
e 241 470
e 241 471
e 241 472
e 241 473
e 241 476
e 241 477
e 241 478
e 241 479
e 241 480
e 241 483
e 241 484
e 241 485
e 241 489
e 241 493
e 241 495
e 241 499
e 241 501
e 241 502
e 241 504
e 241 505
e 241 510
e 241 515
e 241 516
e 241 517
e 241 520
e 241 522
e 241 526
e 241 531
e 241 535
e 241 538
e 241 543
e 241 548
e 241 549
e 241 550
e 241 552
e 241 569
e 241 570
e 241 577
e 241 578
e 241 588
e 241 589
e 241 590
e 241 592
e 241 593
e 241 594
e 241 595
e 241 596
e 241 602
e 241 606
e 241 607
e 241 610
e 241 612
e 241 614
e 241 615
e 241 616
e 241 618
e 241 620
e 241 621
e 241 623
e 241 627
e 241 629
e 241 637
e 241 641
e 241 642
e 241 644
e 241 645
e 241 646
e 241 647
e 241 648
e 241 650
e 241 654
e 241 656
e 241 657
e 241 661
e 241 662
e 241 667
e 241 668
e 241 675
e 241 676
e 241 679
e 241 686
e 241 687
e 241 695
e 241 697
e 241 699
e 241 701
e 241 702
e 241 703
e 241 704
e 241 705
e 241 706
e 241 707
e 241 708
e 241 713
e 241 715
e 241 716
e 241 721
e 241 723
e 241 728
e 241 735
e 241 736
e 241 738
e 241 740
e 241 741
e 241 742
e 241 744
e 241 745
e 241 751
e 241 754
e 241 755
e 241 757
e 241 759
e 241 760
e 241 761
e 241 766
e 241 767
e 241 769
e 241 774
e 241 775
e 241 778
e 241 779
e 241 780
e 241 782
e 241 783
e 241 785
e 241 787
e 241 790
e 241 791
e 241 792
e 241 793
e 241 796
e 241 798
e 241 799
e 241 801
e 241 802
e 241 803
e 241 813
e 241 814
e 241 816
e 241 819
e 241 820
e 241 821
e 241 822
e 241 823
e 241 825
e 241 826
e 241 827
e 241 830
e 241 831
e 241 832
e 241 833
e 241 835
e 241 836
e 241 837
e 241 839
e 241 841
e 241 843
e 241 844
e 241 845
e 241 847
e 241 848
e 241 849
e 241 850
e 241 851
e 241 854
e 241 855
e 242 244
e 242 246
e 242 251
e 242 262
e 242 265
e 242 269
e 242 280
e 242 286
e 242 287
e 242 290
e 242 292
e 242 293
e 242 300
e 242 304
e 242 305
e 242 306
e 242 319
e 242 329
e 242 330
e 242 339
e 242 340
e 242 347
e 242 356
e 242 372
e 242 375
e 242 376
e 242 378
e 242 380
e 242 383
e 242 406
e 242 417
e 242 424
e 242 426
e 242 429
e 242 432
e 242 441
e 242 444
e 242 453
e 242 461
e 242 476
e 243 245
e 243 246
e 243 251
e 243 261
e 243 262
e 243 263
e 243 270
e 243 280
e 243 282
e 243 285
e 243 287
e 243 290
e 243 296
e 243 299
e 243 308
e 243 309
e 243 310
e 243 312
e 243 324
e 243 334
e 243 341
e 243 346
e 243 353
e 243 354
e 243 360
e 243 361
e 243 364
e 243 368
e 243 374
e 243 376
e 243 388
e 243 394
e 243 400
e 243 402
e 243 408
e 243 414
e 243 417
e 243 419
e 243 425
e 243 429
e 243 431
e 243 441
e 243 453
e 243 462
e 243 475
e 244 245
e 244 246
e 244 247
e 244 248
e 244 249
e 244 250
e 244 251
e 244 255
e 244 257
e 244 260
e 244 262
e 244 263
e 244 264
e 244 265
e 244 267
e 244 272
e 244 273
e 244 274
e 244 278
e 244 280
e 244 282
e 244 284
e 244 286
e 244 287
e 244 290
e 244 292
e 244 293
e 244 296
e 244 300
e 244 304
e 244 305
e 244 306
e 244 307
e 244 313
e 244 316
e 244 317
e 244 318
e 244 319
e 244 321
e 244 322
e 244 325
e 244 327
e 244 329
e 244 334
e 244 335
e 244 336
e 244 338
e 244 340
e 244 342
e 244 344
e 244 345
e 244 346
e 244 347
e 244 349
e 244 351
e 244 352
e 244 354
e 244 356
e 244 358
e 244 360
e 244 364
e 244 365
e 244 366
e 244 367
e 244 368
e 244 371
e 244 372
e 244 373
e 244 374
e 244 375
e 244 376
e 244 377
e 244 378
e 244 379
e 244 380
e 244 382
e 244 385
e 244 386
e 244 387
e 244 389
e 244 390
e 244 391
e 244 392
e 244 394
e 244 395
e 244 397
e 244 400
e 244 403
e 244 406
e 244 407
e 244 409
e 244 410
e 244 411
e 244 417
e 244 420
e 244 422
e 244 424
e 244 425
e 244 427
e 244 428
e 244 429
e 244 430
e 244 432
e 244 433
e 244 435
e 244 437
e 244 439
e 244 442
e 244 443
e 244 444
e 244 445
e 244 446
e 244 448
e 244 450
e 244 451
e 244 452
e 244 453
e 244 456
e 244 457
e 244 458
e 244 459
e 244 460
e 244 461
e 244 462
e 244 463
e 244 466
e 244 468
e 244 470
e 244 471
e 244 473
e 244 474
e 244 475
e 244 478
e 244 488
e 244 494
e 244 507
e 244 508
e 244 509
e 244 510
e 244 516
e 244 517
e 244 520
e 244 522
e 244 524
e 244 526
e 244 529
e 244 535
e 244 538
e 244 542
e 244 548
e 244 550
e 244 569
e 244 570
e 244 578
e 244 586
e 244 587
e 244 588
e 244 589
e 244 590
e 244 592
e 244 595
e 244 596
e 244 602
e 244 603
e 244 608
e 244 610
e 244 613
e 244 615
e 244 616
e 244 623
e 244 627
e 244 636
e 244 637
e 244 641
e 244 642
e 244 644
e 244 647
e 244 654
e 244 661
e 244 665
e 244 667
e 244 672
e 244 675
e 244 676
e 244 679
e 244 687
e 244 690
e 244 692
e 244 695
e 244 697
e 244 699
e 244 701
e 244 702
e 244 704
e 244 705
e 244 707
e 244 708
e 244 711
e 244 714
e 244 715
e 244 716
e 244 721
e 244 723
e 244 724
e 244 728
e 244 732
e 244 734
e 244 739
e 244 740
e 244 741
e 244 742
e 244 744
e 244 748
e 244 750
e 244 751
e 244 755
e 244 756
e 244 757
e 244 759
e 244 763
e 244 766
e 244 770
e 244 771
e 244 772
e 244 774
e 244 778
e 244 779
e 244 786
e 244 788
e 244 796
e 244 799
e 244 801
e 244 803
e 244 804
e 244 807
e 244 808
e 244 809
e 244 810
e 244 817
e 244 818
e 244 824
e 244 833
e 244 834
e 244 839
e 244 840
e 244 842
e 244 849
e 244 851
e 244 854
e 244 855
e 245 246
e 245 248
e 245 251
e 245 257
e 245 260
e 245 262
e 245 263
e 245 264
e 245 267
e 245 270
e 245 272
e 245 280
e 245 281
e 245 282
e 245 284
e 245 285
e 245 287
e 245 291
e 245 293
e 245 296
e 245 299
e 245 300
e 245 301
e 245 310
e 245 312
e 245 317
e 245 318
e 245 319
e 245 322
e 245 324
e 245 326
e 245 327
e 245 329
e 245 330
e 245 334
e 245 335
e 245 342
e 245 345
e 245 346
e 245 347
e 245 349
e 245 351
e 245 353
e 245 354
e 245 358
e 245 360
e 245 361
e 245 366
e 245 368
e 245 372
e 245 374
e 245 376
e 245 380
e 245 382
e 245 387
e 245 388
e 245 389
e 245 391
e 245 392
e 245 395
e 245 396
e 245 401
e 245 402
e 245 405
e 245 408
e 245 409
e 245 410
e 245 411
e 245 414
e 245 415
e 245 416
e 245 417
e 245 420
e 245 422
e 245 424
e 245 429
e 245 432
e 245 437
e 245 443
e 245 445
e 245 446
e 245 449
e 245 451
e 245 452
e 245 453
e 245 456
e 245 457
e 245 458
e 245 461
e 245 462
e 245 464
e 245 465
e 245 470
e 245 473
e 245 475
e 245 476
e 245 478
e 245 480
e 246 248
e 246 251
e 246 254
e 246 255
e 246 257
e 246 258
e 246 260
e 246 261
e 246 262
e 246 263
e 246 265
e 246 267
e 246 269
e 246 270
e 246 272
e 246 274
e 246 279
e 246 280
e 246 282
e 246 284
e 246 285
e 246 286
e 246 287
e 246 290
e 246 291
e 246 292
e 246 293
e 246 294
e 246 295
e 246 296
e 246 299
e 246 300
e 246 301
e 246 304
e 246 306
e 246 307
e 246 310
e 246 311
e 246 312
e 246 314
e 246 315
e 246 317
e 246 318
e 246 319
e 246 322
e 246 324
e 246 326
e 246 327
e 246 329
e 246 330
e 246 332
e 246 333
e 246 334
e 246 335
e 246 336
e 246 338
e 246 339
e 246 340
e 246 341
e 246 342
e 246 343
e 246 344
e 246 345
e 246 346
e 246 347
e 246 351
e 246 353
e 246 354
e 246 356
e 246 358
e 246 360
e 246 361
e 246 363
e 246 364
e 246 366
e 246 368
e 246 369
e 246 372
e 246 373
e 246 374
e 246 375
e 246 376
e 246 378
e 246 379
e 246 380
e 246 383
e 246 384
e 246 385
e 246 387
e 246 388
e 246 389
e 246 390
e 246 393
e 246 398
e 246 399
e 246 400
e 246 401
e 246 402
e 246 404
e 246 405
e 246 406
e 246 408
e 246 409
e 246 410
e 246 411
e 246 413
e 246 417
e 246 422
e 246 423
e 246 424
e 246 425
e 246 426
e 246 427
e 246 429
e 246 430
e 246 433
e 246 436
e 246 437
e 246 438
e 246 439
e 246 441
e 246 444
e 246 445
e 246 446
e 246 449
e 246 451
e 246 452
e 246 453
e 246 454
e 246 456
e 246 457
e 246 458
e 246 459
e 246 460
e 246 462
e 246 463
e 246 464
e 246 466
e 246 467
e 246 469
e 246 470
e 246 471
e 246 474
e 246 475
e 246 476
e 246 477
e 246 478
e 246 479
e 246 480
e 246 483
e 246 484
e 246 494
e 246 504
e 246 508
e 246 513
e 246 515
e 246 516
e 246 517
e 246 520
e 246 524
e 246 526
e 246 529
e 246 531
e 246 535
e 246 538
e 246 543
e 246 548
e 246 549
e 246 550
e 246 551
e 246 552
e 246 565
e 246 569
e 246 570
e 246 588
e 246 590
e 246 592
e 246 595
e 246 602
e 246 606
e 246 610
e 246 615
e 246 616
e 246 622
e 246 627
e 246 628
e 246 629
e 246 635
e 246 637
e 246 638
e 246 641
e 246 644
e 246 647
e 246 658
e 246 661
e 246 665
e 246 667
e 246 672
e 246 674
e 246 675
e 246 678
e 246 679
e 246 687
e 246 691
e 246 695
e 246 697
e 246 701
e 246 702
e 246 704
e 246 705
e 246 707
e 246 708
e 246 709
e 246 715
e 246 716
e 246 717
e 246 720
e 246 722
e 246 723
e 246 729
e 246 730
e 246 732
e 246 738
e 246 739
e 246 740
e 246 741
e 246 742
e 246 743
e 246 744
e 246 746
e 246 748
e 246 751
e 246 752
e 246 753
e 246 755
e 246 757
e 246 759
e 246 769
e 246 770
e 246 778
e 246 779
e 246 781
e 246 782
e 246 796
e 246 799
e 246 800
e 246 803
e 246 816
e 246 824
e 246 825
e 246 827
e 246 829
e 246 831
e 246 833
e 246 837
e 246 849
e 246 850
e 247 248
e 247 251
e 247 252
e 247 260
e 247 262
e 247 267
e 247 279
e 247 281
e 247 282
e 247 284
e 247 285
e 247 287
e 247 291
e 247 298
e 247 299
e 247 308
e 247 309
e 247 326
e 247 328
e 247 329
e 247 330
e 247 334
e 247 336
e 247 338
e 247 347
e 247 351
e 247 356
e 247 365
e 247 372
e 247 374
e 247 382
e 247 385
e 247 387
e 247 388
e 247 389
e 247 391
e 247 392
e 247 393
e 247 394
e 247 395
e 247 400
e 247 414
e 247 419
e 247 425
e 247 428
e 247 433
e 247 462
e 247 466
e 247 468
e 248 251
e 248 257
e 248 260
e 248 261
e 248 262
e 248 263
e 248 267
e 248 272
e 248 274
e 248 279
e 248 280
e 248 281
e 248 282
e 248 283
e 248 284
e 248 285
e 248 287
e 248 288
e 248 290
e 248 291
e 248 292
e 248 293
e 248 296
e 248 297
e 248 299
e 248 302
e 248 307
e 248 312
e 248 314
e 248 318
e 248 319
e 248 322
e 248 323
e 248 324
e 248 325
e 248 326
e 248 328
e 248 329
e 248 330
e 248 331
e 248 332
e 248 334
e 248 335
e 248 338
e 248 342
e 248 344
e 248 345
e 248 346
e 248 347
e 248 352
e 248 353
e 248 354
e 248 356
e 248 358
e 248 360
e 248 361
e 248 362
e 248 367
e 248 368
e 248 369
e 248 370
e 248 372
e 248 376
e 248 379
e 248 380
e 248 384
e 248 388
e 248 389
e 248 390
e 248 394
e 248 396
e 248 401
e 248 403
e 248 408
e 248 409
e 248 410
e 248 411
e 248 414
e 248 415
e 248 416
e 248 417
e 248 418
e 248 419
e 248 420
e 248 422
e 248 424
e 248 434
e 248 435
e 248 437
e 248 438
e 248 440
e 248 443
e 248 445
e 248 446
e 248 447
e 248 448
e 248 449
e 248 452
e 248 453
e 248 454
e 248 456
e 248 458
e 248 459
e 248 460
e 248 461
e 248 462
e 248 464
e 248 465
e 248 466
e 248 470
e 248 472
e 248 473
e 248 475
e 248 478
e 248 480
e 248 854
e 249 250
e 249 251
e 249 260
e 249 262
e 249 282
e 249 286
e 249 287
e 249 290
e 249 293
e 249 296
e 249 306
e 249 326
e 249 329
e 249 334
e 249 356
e 249 367
e 249 386
e 249 395
e 249 407
e 249 417
e 249 436
e 249 439
e 249 442
e 249 443
e 249 444
e 249 456
e 249 462
e 249 468
e 249 471
e 249 473
e 249 509
e 249 540
e 249 591
e 249 640
e 249 655
e 249 674
e 249 757
e 249 812
e 249 854
e 250 251
e 250 260
e 250 262
e 250 282
e 250 286
e 250 287
e 250 290
e 250 296
e 250 306
e 250 326
e 250 329
e 250 334
e 250 356
e 250 367
e 250 386
e 250 395
e 250 407
e 250 417
e 250 436
e 250 439
e 250 442
e 250 443
e 250 456
e 250 462
e 250 468
e 250 471
e 250 473
e 250 854
e 251 252
e 251 257
e 251 259
e 251 260
e 251 261
e 251 262
e 251 263
e 251 264
e 251 265
e 251 267
e 251 269
e 251 272
e 251 274
e 251 279
e 251 281
e 251 282
e 251 284
e 251 285
e 251 286
e 251 287
e 251 290
e 251 291
e 251 292
e 251 293
e 251 294
e 251 296
e 251 297
e 251 298
e 251 299
e 251 300
e 251 301
e 251 302
e 251 303
e 251 306
e 251 307
e 251 308
e 251 309
e 251 310
e 251 313
e 251 314
e 251 315
e 251 318
e 251 319
e 251 322
e 251 325
e 251 326
e 251 327
e 251 328
e 251 329
e 251 330
e 251 331
e 251 332
e 251 333
e 251 334
e 251 335
e 251 336
e 251 338
e 251 339
e 251 340
e 251 341
e 251 342
e 251 344
e 251 345
e 251 347
e 251 351
e 251 352
e 251 353
e 251 354
e 251 355
e 251 356
e 251 359
e 251 360
e 251 363
e 251 364
e 251 365
e 251 367
e 251 368
e 251 369
e 251 370
e 251 372
e 251 374
e 251 375
e 251 376
e 251 377
e 251 380
e 251 382
e 251 384
e 251 385
e 251 386
e 251 387
e 251 388
e 251 389
e 251 390
e 251 391
e 251 392
e 251 393
e 251 394
e 251 395
e 251 396
e 251 398
e 251 399
e 251 400
e 251 402
e 251 403
e 251 405
e 251 407
e 251 408
e 251 409
e 251 410
e 251 411
e 251 414
e 251 416
e 251 417
e 251 419
e 251 420
e 251 421
e 251 422
e 251 424
e 251 425
e 251 428
e 251 429
e 251 431
e 251 432
e 251 433
e 251 434
e 251 435
e 251 436
e 251 437
e 251 439
e 251 440
e 251 441
e 251 442
e 251 443
e 251 445
e 251 446
e 251 447
e 251 448
e 251 451
e 251 452
e 251 453
e 251 454
e 251 455
e 251 456
e 251 457
e 251 458
e 251 461
e 251 462
e 251 464
e 251 465
e 251 466
e 251 468
e 251 469
e 251 470
e 251 471
e 251 473
e 251 475
e 251 476
e 251 477
e 251 479
e 251 854
e 252 260
e 252 262
e 252 282
e 252 284
e 252 287
e 252 298
e 252 299
e 252 300
e 252 307
e 252 308
e 252 309
e 252 328
e 252 329
e 252 330
e 252 334
e 252 356
e 252 359
e 252 365
e 252 368
e 252 382
e 252 385
e 252 387
e 252 389
e 252 391
e 252 393
e 252 416
e 252 419
e 252 428
e 252 468
e 253 254
e 253 255
e 253 256
e 253 266
e 253 283
e 253 284
e 253 287
e 253 290
e 253 320
e 253 329
e 253 337
e 253 338
e 253 386
e 253 395
e 253 407
e 253 417
e 253 421
e 253 432
e 253 442
e 253 456
e 253 469
e 253 471
e 253 472
e 254 256
e 254 257
e 254 258
e 254 266
e 254 283
e 254 284
e 254 287
e 254 290
e 254 314
e 254 320
e 254 329
e 254 330
e 254 334
e 254 337
e 254 338
e 254 346
e 254 347
e 254 372
e 254 380
e 254 386
e 254 395
e 254 400
e 254 404
e 254 421
e 254 432
e 254 436
e 254 437
e 254 442
e 254 456
e 254 467
e 254 469
e 254 471
e 254 472
e 254 478
e 254 480
e 255 256
e 255 257
e 255 258
e 255 260
e 255 283
e 255 284
e 255 287
e 255 290
e 255 293
e 255 313
e 255 314
e 255 320
e 255 329
e 255 330
e 255 334
e 255 337
e 255 338
e 255 346
e 255 347
e 255 364
e 255 372
e 255 373
e 255 380
e 255 386
e 255 395
e 255 400
e 255 404
e 255 407
e 255 417
e 255 432
e 255 436
e 255 437
e 255 442
e 255 444
e 255 453
e 255 456
e 255 467
e 255 469
e 255 471
e 255 472
e 255 474
e 255 478
e 255 480
e 255 508
e 255 509
e 255 510
e 255 522
e 255 526
e 255 529
e 255 538
e 255 543
e 255 548
e 255 569
e 255 570
e 255 588
e 255 589
e 255 607
e 255 613
e 255 623
e 255 627
e 255 636
e 255 641
e 255 642
e 255 647
e 255 657
e 255 661
e 255 672
e 255 676
e 255 690
e 255 695
e 255 698
e 255 699
e 255 704
e 255 707
e 255 711
e 255 721
e 255 732
e 255 734
e 255 741
e 255 742
e 255 748
e 255 751
e 255 757
e 255 766
e 255 770
e 255 771
e 255 788
e 255 798
e 255 799
e 255 801
e 255 803
e 255 807
e 255 808
e 255 810
e 255 818
e 255 821
e 255 824
e 255 834
e 255 837
e 255 840
e 255 842
e 255 844
e 255 850
e 255 851
e 255 852
e 255 855
e 256 266
e 256 283
e 256 284
e 256 287
e 256 290
e 256 320
e 256 329
e 256 337
e 256 338
e 256 386
e 256 395
e 256 407
e 256 417
e 256 421
e 256 432
e 256 442
e 256 456
e 256 469
e 256 471
e 256 472
e 257 258
e 257 260
e 257 261
e 257 264
e 257 265
e 257 272
e 257 273
e 257 274
e 257 280
e 257 284
e 257 287
e 257 290
e 257 293
e 257 296
e 257 306
e 257 313
e 257 314
e 257 316
e 257 317
e 257 318
e 257 327
e 257 329
e 257 330
e 257 334
e 257 335
e 257 338
e 257 342
e 257 346
e 257 347
e 257 354
e 257 358
e 257 359
e 257 361
e 257 364
e 257 366
e 257 368
e 257 372
e 257 373
e 257 375
e 257 380
e 257 383
e 257 385
e 257 386
e 257 389
e 257 390
e 257 394
e 257 396
e 257 400
e 257 401
e 257 404
e 257 415
e 257 416
e 257 417
e 257 420
e 257 421
e 257 427
e 257 436
e 257 437
e 257 443
e 257 444
e 257 449
e 257 453
e 257 456
e 257 458
e 257 461
e 257 462
e 257 464
e 257 465
e 257 467
e 257 469
e 257 470
e 257 471
e 257 473
e 257 474
e 257 478
e 257 480
e 257 483
e 257 484
e 257 488
e 257 489
e 257 493
e 257 497
e 257 502
e 257 504
e 257 507
e 257 508
e 257 509
e 257 513
e 257 514
e 257 515
e 257 516
e 257 519
e 257 520
e 257 522
e 257 526
e 257 529
e 257 531
e 257 535
e 257 538
e 257 542
e 257 543
e 257 548
e 257 549
e 257 550
e 257 551
e 257 554
e 257 555
e 257 556
e 257 558
e 257 565
e 257 569
e 257 570
e 257 571
e 257 572
e 257 573
e 257 574
e 257 575
e 257 578
e 257 586
e 257 588
e 257 590
e 257 592
e 257 595
e 257 596
e 257 602
e 257 607
e 257 608
e 257 609
e 257 610
e 257 613
e 257 615
e 257 616
e 257 622
e 257 623
e 257 625
e 257 626
e 257 627
e 257 629
e 257 633
e 257 634
e 257 635
e 257 637
e 257 638
e 257 639
e 257 642
e 257 644
e 257 647
e 257 654
e 257 657
e 257 660
e 257 663
e 257 667
e 257 670
e 257 672
e 257 674
e 257 675
e 257 676
e 257 678
e 257 679
e 257 680
e 257 686
e 257 687
e 257 695
e 257 696
e 257 697
e 257 701
e 257 702
e 257 704
e 257 705
e 257 707
e 257 708
e 257 712
e 257 714
e 257 715
e 257 716
e 257 717
e 257 718
e 257 720
e 257 722
e 257 723
e 257 724
e 257 725
e 257 727
e 257 729
e 257 731
e 257 735
e 257 737
e 257 738
e 257 740
e 257 741
e 257 742
e 257 743
e 257 744
e 257 745
e 257 746
e 257 750
e 257 751
e 257 752
e 257 755
e 257 757
e 257 758
e 257 759
e 257 763
e 257 765
e 257 768
e 257 769
e 257 770
e 257 772
e 257 773
e 257 774
e 257 775
e 257 778
e 257 779
e 257 780
e 257 781
e 257 782
e 257 786
e 257 789
e 257 790
e 257 794
e 257 795
e 257 796
e 257 797
e 257 799
e 257 800
e 257 804
e 257 805
e 257 807
e 257 809
e 257 810
e 257 812
e 257 814
e 257 817
e 257 822
e 257 824
e 257 827
e 257 829
e 257 830
e 257 831
e 257 833
e 257 837
e 257 838
e 257 845
e 257 846
e 257 849
e 257 850
e 257 852
e 257 853
e 258 284
e 258 293
e 258 314
e 258 330
e 258 334
e 258 346
e 258 347
e 258 372
e 258 373
e 258 380
e 258 400
e 258 404
e 258 417
e 258 436
e 258 437
e 258 467
e 258 474
e 258 478
e 258 480
e 259 262
e 259 274
e 259 287
e 259 290
e 259 291
e 259 296
e 259 298
e 259 307
e 259 308
e 259 309
e 259 314
e 259 327
e 259 328
e 259 344
e 259 355
e 259 356
e 259 358
e 259 364
e 259 368
e 259 376
e 259 380
e 259 394
e 259 414
e 259 415
e 259 417
e 259 419
e 259 429
e 259 431
e 259 440
e 259 441
e 259 468
e 259 473
e 260 261
e 260 262
e 260 263
e 260 264
e 260 265
e 260 267
e 260 271
e 260 272
e 260 273
e 260 274
e 260 275
e 260 276
e 260 277
e 260 278
e 260 280
e 260 281
e 260 282
e 260 283
e 260 284
e 260 285
e 260 286
e 260 287
e 260 290
e 260 291
e 260 292
e 260 293
e 260 294
e 260 295
e 260 296
e 260 298
e 260 299
e 260 300
e 260 302
e 260 303
e 260 305
e 260 306
e 260 307
e 260 308
e 260 309
e 260 311
e 260 313
e 260 314
e 260 316
e 260 317
e 260 318
e 260 319
e 260 325
e 260 326
e 260 327
e 260 328
e 260 329
e 260 330
e 260 331
e 260 332
e 260 334
e 260 335
e 260 338
e 260 342
e 260 344
e 260 346
e 260 347
e 260 348
e 260 349
e 260 350
e 260 351
e 260 354
e 260 355
e 260 356
e 260 358
e 260 359
e 260 361
e 260 364
e 260 365
e 260 367
e 260 368
e 260 372
e 260 375
e 260 377
e 260 378
e 260 379
e 260 380
e 260 381
e 260 382
e 260 383
e 260 384
e 260 385
e 260 386
e 260 387
e 260 388
e 260 389
e 260 390
e 260 391
e 260 393
e 260 394
e 260 395
e 260 396
e 260 399
e 260 400
e 260 401
e 260 407
e 260 413
e 260 414
e 260 416
e 260 417
e 260 418
e 260 419
e 260 420
e 260 421
e 260 423
e 260 426
e 260 428
e 260 429
e 260 430
e 260 431
e 260 436
e 260 437
e 260 438
e 260 439
e 260 440
e 260 441
e 260 443
e 260 444
e 260 447
e 260 448
e 260 449
e 260 450
e 260 452
e 260 454
e 260 456
e 260 457
e 260 458
e 260 459
e 260 460
e 260 462
e 260 464
e 260 465
e 260 466
e 260 468
e 260 469
e 260 470
e 260 471
e 260 472
e 260 473
e 260 474
e 260 476
e 260 477
e 260 478
e 260 479
e 260 480
e 260 483
e 260 484
e 260 485
e 260 487
e 260 488
e 260 489
e 260 493
e 260 494
e 260 495
e 260 497
e 260 499
e 260 501
e 260 502
e 260 504
e 260 505
e 260 507
e 260 508
e 260 509
e 260 510
e 260 513
e 260 515
e 260 516
e 260 517
e 260 519
e 260 520
e 260 522
e 260 526
e 260 527
e 260 528
e 260 529
e 260 531
e 260 533
e 260 534
e 260 535
e 260 538
e 260 543
e 260 548
e 260 549
e 260 550
e 260 551
e 260 552
e 260 556
e 260 557
e 260 565
e 260 569
e 260 570
e 260 578
e 260 586
e 260 587
e 260 588
e 260 589
e 260 590
e 260 595
e 260 596
e 260 601
e 260 602
e 260 603
e 260 606
e 260 607
e 260 608
e 260 609
e 260 610
e 260 613
e 260 615
e 260 616
e 260 622
e 260 623
e 260 625
e 260 627
e 260 628
e 260 629
e 260 630
e 260 632
e 260 633
e 260 635
e 260 638
e 260 639
e 260 641
e 260 642
e 260 643
e 260 647
e 260 654
e 260 655
e 260 656
e 260 657
e 260 659
e 260 661
e 260 662
e 260 664
e 260 665
e 260 666
e 260 667
e 260 668
e 260 669
e 260 670
e 260 671
e 260 672
e 260 674
e 260 675
e 260 676
e 260 677
e 260 678
e 260 679
e 260 680
e 260 687
e 260 688
e 260 692
e 260 694
e 260 695
e 260 697
e 260 698
e 260 699
e 260 701
e 260 702
e 260 703
e 260 704
e 260 705
e 260 707
e 260 708
e 260 709
e 260 710
e 260 711
e 260 714
e 260 715
e 260 716
e 260 717
e 260 718
e 260 719
e 260 720
e 260 721
e 260 722
e 260 723
e 260 724
e 260 725
e 260 726
e 260 728
e 260 729
e 260 735
e 260 738
e 260 739
e 260 740
e 260 741
e 260 742
e 260 743
e 260 744
e 260 745
e 260 746
e 260 749
e 260 750
e 260 751
e 260 752
e 260 753
e 260 755
e 260 756
e 260 757
e 260 759
e 260 760
e 260 762
e 260 764
e 260 765
e 260 769
e 260 770
e 260 772
e 260 773
e 260 774
e 260 775
e 260 776
e 260 777
e 260 778
e 260 779
e 260 780
e 260 782
e 260 783
e 260 784
e 260 785
e 260 786
e 260 789
e 260 790
e 260 791
e 260 792
e 260 793
e 260 796
e 260 797
e 260 798
e 260 799
e 260 800
e 260 801
e 260 802
e 260 803
e 260 804
e 260 806
e 260 807
e 260 808
e 260 809
e 260 810
e 260 812
e 260 815
e 260 816
e 260 817
e 260 819
e 260 820
e 260 821
e 260 822
e 260 824
e 260 826
e 260 827
e 260 831
e 260 833
e 260 834
e 260 835
e 260 836
e 260 837
e 260 839
e 260 840
e 260 841
e 260 842
e 260 843
e 260 844
e 260 845
e 260 846
e 260 847
e 260 848
e 260 849
e 260 850
e 260 851
e 260 852
e 260 853
e 260 854
e 260 855
e 261 262
e 261 264
e 261 278
e 261 280
e 261 287
e 261 290
e 261 293
e 261 296
e 261 297
e 261 298
e 261 302
e 261 308
e 261 309
e 261 312
e 261 319
e 261 328
e 261 332
e 261 334
e 261 338
e 261 342
e 261 344
e 261 346
e 261 352
e 261 353
e 261 354
e 261 356
e 261 361
e 261 364
e 261 367
e 261 368
e 261 369
e 261 370
e 261 372
e 261 376
e 261 380
e 261 383
e 261 385
e 261 388
e 261 393
e 261 394
e 261 395
e 261 400
e 261 408
e 261 417
e 261 419
e 261 429
e 261 431
e 261 435
e 261 437
e 261 441
e 261 444
e 261 447
e 261 452
e 261 454
e 261 457
e 261 470
e 261 471
e 261 478
e 261 484
e 261 487
e 261 488
e 261 489
e 261 490
e 261 491
e 261 492
e 261 494
e 261 500
e 261 501
e 261 502
e 261 506
e 261 508
e 261 509
e 261 510
e 261 512
e 261 514
e 261 515
e 261 516
e 261 520
e 261 524
e 261 535
e 261 536
e 261 537
e 261 539
e 261 543
e 261 548
e 261 549
e 261 550
e 261 551
e 261 552
e 261 554
e 261 555
e 261 556
e 261 586
e 261 588
e 261 595
e 261 596
e 261 609
e 261 613
e 261 615
e 261 625
e 261 639
e 261 641
e 261 642
e 261 657
e 261 665
e 261 667
e 261 676
e 261 679
e 261 695
e 261 700
e 261 701
e 261 702
e 261 704
e 261 718
e 261 720
e 261 724
e 261 725
e 261 729
e 261 735
e 261 742
e 261 743
e 261 744
e 261 746
e 261 750
e 261 751
e 261 756
e 261 757
e 261 769
e 261 772
e 261 773
e 261 786
e 261 789
e 261 790
e 261 804
e 261 809
e 261 812
e 261 831
e 261 833
e 261 845
e 261 846
e 261 849
e 261 853
e 262 263
e 262 264
e 262 267
e 262 269
e 262 270
e 262 274
e 262 280
e 262 281
e 262 282
e 262 284
e 262 285
e 262 286
e 262 287
e 262 290
e 262 291
e 262 292
e 262 294
e 262 296
e 262 298
e 262 299
e 262 300
e 262 302
e 262 303
e 262 304
e 262 305
e 262 306
e 262 307
e 262 308
e 262 309
e 262 312
e 262 313
e 262 314
e 262 319
e 262 324
e 262 325
e 262 326
e 262 327
e 262 328
e 262 329
e 262 330
e 262 331
e 262 332
e 262 334
e 262 338
e 262 341
e 262 345
e 262 346
e 262 347
e 262 353
e 262 354
e 262 355
e 262 356
e 262 359
e 262 361
e 262 362
e 262 364
e 262 365
e 262 367
e 262 368
e 262 376
e 262 378
e 262 380
e 262 382
e 262 383
e 262 385
e 262 386
e 262 387
e 262 388
e 262 389
e 262 391
e 262 393
e 262 394
e 262 400
e 262 407
e 262 408
e 262 414
e 262 416
e 262 417
e 262 419
e 262 420
e 262 424
e 262 425
e 262 426
e 262 428
e 262 429
e 262 431
e 262 433
e 262 434
e 262 435
e 262 439
e 262 440
e 262 441
e 262 443
e 262 452
e 262 455
e 262 462
e 262 468
e 262 471
e 262 473
e 262 476
e 262 854
e 263 264
e 263 270
e 263 280
e 263 282
e 263 284
e 263 285
e 263 287
e 263 290
e 263 292
e 263 294
e 263 296
e 263 299
e 263 300
e 263 302
e 263 303
e 263 304
e 263 310
e 263 312
e 263 314
e 263 322
e 263 323
e 263 324
e 263 327
e 263 329
e 263 330
e 263 331
e 263 334
e 263 335
e 263 341
e 263 342
e 263 345
e 263 346
e 263 353
e 263 354
e 263 355
e 263 356
e 263 360
e 263 361
e 263 364
e 263 366
e 263 368
e 263 372
e 263 374
e 263 376
e 263 387
e 263 388
e 263 390
e 263 394
e 263 400
e 263 402
e 263 408
e 263 409
e 263 410
e 263 411
e 263 414
e 263 417
e 263 420
e 263 422
e 263 424
e 263 425
e 263 429
e 263 431
e 263 437
e 263 440
e 263 441
e 263 445
e 263 446
e 263 451
e 263 453
e 263 457
e 263 462
e 263 470
e 263 472
e 263 475
e 264 271
e 264 272
e 264 274
e 264 276
e 264 277
e 264 280
e 264 283
e 264 287
e 264 289
e 264 290
e 264 292
e 264 294
e 264 296
e 264 298
e 264 300
e 264 302
e 264 303
e 264 307
e 264 314
e 264 316
e 264 317
e 264 318
e 264 319
e 264 321
e 264 327
e 264 329
e 264 330
e 264 331
e 264 334
e 264 338
e 264 339
e 264 342
e 264 346
e 264 348
e 264 349
e 264 351
e 264 354
e 264 355
e 264 356
e 264 359
e 264 363
e 264 366
e 264 367
e 264 368
e 264 372
e 264 375
e 264 376
e 264 377
e 264 380
e 264 382
e 264 386
e 264 387
e 264 391
e 264 392
e 264 394
e 264 395
e 264 399
e 264 400
e 264 417
e 264 418
e 264 420
e 264 422
e 264 425
e 264 426
e 264 429
e 264 430
e 264 431
e 264 432
e 264 437
e 264 440
e 264 441
e 264 443
e 264 444
e 264 454
e 264 457
e 264 459
e 264 461
e 264 469
e 264 472
e 264 474
e 264 478
e 264 483
e 264 484
e 264 487
e 264 493
e 264 500
e 264 501
e 264 502
e 264 506
e 264 508
e 264 509
e 264 510
e 264 512
e 264 514
e 264 515
e 264 516
e 264 520
e 264 526
e 264 535
e 264 538
e 264 543
e 264 548
e 264 549
e 264 550
e 264 551
e 264 552
e 264 554
e 264 556
e 264 569
e 264 570
e 264 578
e 264 586
e 264 588
e 264 589
e 264 595
e 264 598
e 264 599
e 264 606
e 264 610
e 264 615
e 264 616
e 264 623
e 264 625
e 264 627
e 264 641
e 264 642
e 264 645
e 264 646
e 264 647
e 264 648
e 264 657
e 264 661
e 264 676
e 264 679
e 264 697
e 264 699
e 264 700
e 264 704
e 264 713
e 264 726
e 264 727
e 264 737
e 264 741
e 264 745
e 264 751
e 264 754
e 264 756
e 264 757
e 264 759
e 264 764
e 264 768
e 264 769
e 264 772
e 264 773
e 264 775
e 264 778
e 264 779
e 264 780
e 264 781
e 264 782
e 264 785
e 264 794
e 264 796
e 264 802
e 264 806
e 264 809
e 264 812
e 264 814
e 264 816
e 264 821
e 264 825
e 264 830
e 264 831
e 264 837
e 264 841
e 264 842
e 264 851
e 264 852
e 264 855
e 265 269
e 265 273
e 265 280
e 265 287
e 265 290
e 265 293
e 265 300
e 265 316
e 265 319
e 265 328
e 265 329
e 265 330
e 265 331
e 265 334
e 265 338
e 265 339
e 265 346
e 265 347
e 265 348
e 265 350
e 265 356
e 265 358
e 265 359
e 265 368
e 265 375
e 265 381
e 265 387
e 265 391
e 265 393
e 265 394
e 265 395
e 265 400
e 265 417
e 265 422
e 265 427
e 265 432
e 265 444
e 265 448
e 265 461
e 265 464
e 265 468
e 265 470
e 265 474
e 265 478
e 265 484
e 265 501
e 265 502
e 265 507
e 265 508
e 265 509
e 265 516
e 265 517
e 265 526
e 265 535
e 265 542
e 265 548
e 265 549
e 265 550
e 265 552
e 265 569
e 265 570
e 265 578
e 265 585
e 265 586
e 265 588
e 265 589
e 265 590
e 265 595
e 265 596
e 265 602
e 265 608
e 265 610
e 265 612
e 265 614
e 265 615
e 265 616
e 265 618
e 265 621
e 265 623
e 265 627
e 265 641
e 265 642
e 265 644
e 265 647
e 265 654
e 265 657
e 265 661
e 265 670
e 265 672
e 265 673
e 265 676
e 265 679
e 265 682
e 265 685
e 265 686
e 265 687
e 265 693
e 265 697
e 265 701
e 265 702
e 265 704
e 265 705
e 265 707
e 265 708
e 265 714
e 265 715
e 265 716
e 265 721
e 265 723
e 265 724
e 265 728
e 265 739
e 265 740
e 265 742
e 265 744
e 265 751
e 265 755
e 265 756
e 265 757
e 265 759
e 265 763
e 265 771
e 265 774
e 265 778
e 265 779
e 265 788
e 265 790
e 265 796
e 265 799
e 265 807
e 265 809
e 265 815
e 265 817
e 265 823
e 265 833
e 265 838
e 265 851
e 265 855
e 266 283
e 266 287
e 266 290
e 266 320
e 266 329
e 266 337
e 266 338
e 266 386
e 266 395
e 266 407
e 266 421
e 266 432
e 266 442
e 266 456
e 266 469
e 266 471
e 266 472
e 266 474
e 267 272
e 267 274
e 267 279
e 267 280
e 267 281
e 267 282
e 267 283
e 267 284
e 267 285
e 267 287
e 267 291
e 267 293
e 267 296
e 267 298
e 267 299
e 267 300
e 267 301
e 267 306
e 267 307
e 267 310
e 267 313
e 267 314
e 267 316
e 267 318
e 267 325
e 267 326
e 267 330
e 267 331
e 267 334
e 267 336
e 267 338
e 267 342
e 267 344
e 267 345
e 267 346
e 267 351
e 267 353
e 267 354
e 267 356
e 267 358
e 267 364
e 267 366
e 267 371
e 267 372
e 267 373
e 267 374
e 267 377
e 267 379
e 267 380
e 267 382
e 267 383
e 267 388
e 267 389
e 267 392
e 267 394
e 267 395
e 267 402
e 267 405
e 267 408
e 267 414
e 267 415
e 267 417
e 267 418
e 267 433
e 267 435
e 267 440
e 267 444
e 267 447
e 267 448
e 267 451
e 267 452
e 267 453
e 267 454
e 267 456
e 267 457
e 267 459
e 267 462
e 267 466
e 267 468
e 267 472
e 267 473
e 267 475
e 267 476
e 267 481
e 267 482
e 267 483
e 267 484
e 267 485
e 267 501
e 267 502
e 267 507
e 267 508
e 267 509
e 267 513
e 267 522
e 267 525
e 267 531
e 267 534
e 267 535
e 267 541
e 267 543
e 267 548
e 267 551
e 267 552
e 267 556
e 267 558
e 267 560
e 267 561
e 267 562
e 267 563
e 267 564
e 267 570
e 267 578
e 267 586
e 267 595
e 267 613
e 267 616
e 267 624
e 267 628
e 267 629
e 267 630
e 267 631
e 267 633
e 267 642
e 267 647
e 267 654
e 267 660
e 267 666
e 267 669
e 267 670
e 267 671
e 267 672
e 267 674
e 267 676
e 267 687
e 267 691
e 267 700
e 267 704
e 267 707
e 267 709
e 267 710
e 267 721
e 267 722
e 267 741
e 267 749
e 267 757
e 267 762
e 267 769
e 267 770
e 267 773
e 267 774
e 267 777
e 267 784
e 267 789
e 267 796
e 267 797
e 267 799
e 267 805
e 267 807
e 267 817
e 267 826
e 267 846
e 267 854
e 268 284
e 268 287
e 268 307
e 268 321
e 268 329
e 268 343
e 268 356
e 268 367
e 268 373
e 268 395
e 268 400
e 268 404
e 268 413
e 268 417
e 268 418
e 268 422
e 268 430
e 268 437
e 268 442
e 268 450
e 268 463
e 269 280
e 269 286
e 269 287
e 269 290
e 269 292
e 269 300
e 269 304
e 269 306
e 269 316
e 269 319
e 269 328
e 269 329
e 269 330
e 269 339
e 269 347
e 269 348
e 269 350
e 269 356
e 269 358
e 269 368
e 269 378
e 269 383
e 269 393
e 269 417
e 269 422
e 269 426
e 269 432
e 269 441
e 269 448
e 269 461
e 269 476
e 270 280
e 270 282
e 270 284
e 270 290
e 270 299
e 270 310
e 270 312
e 270 314
e 270 323
e 270 324
e 270 334
e 270 341
e 270 342
e 270 346
e 270 353
e 270 354
e 270 360
e 270 361
e 270 364
e 270 372
e 270 388
e 270 400
e 270 408
e 270 414
e 270 425
e 270 429
e 270 431
e 270 441
e 270 453
e 270 457
e 270 475
e 271 273
e 271 274
e 271 276
e 271 277
e 271 283
e 271 300
e 271 307
e 271 316
e 271 329
e 271 330
e 271 334
e 271 337
e 271 348
e 271 349
e 271 356
e 271 366
e 271 367
e 271 380
e 271 420
e 271 421
e 271 430
e 271 432
e 271 443
e 272 273
e 272 275
e 272 276
e 272 279
e 272 280
e 272 284
e 272 287
e 272 290
e 272 292
e 272 293
e 272 295
e 272 296
e 272 298
e 272 299
e 272 300
e 272 301
e 272 306
e 272 307
e 272 310
e 272 314
e 272 315
e 272 316
e 272 317
e 272 318
e 272 319
e 272 322
e 272 326
e 272 327
e 272 329
e 272 330
e 272 332
e 272 334
e 272 336
e 272 338
e 272 339
e 272 340
e 272 343
e 272 344
e 272 346
e 272 347
e 272 349
e 272 351
e 272 354
e 272 358
e 272 363
e 272 364
e 272 366
e 272 368
e 272 369
e 272 370
e 272 372
e 272 373
e 272 374
e 272 375
e 272 378
e 272 380
e 272 382
e 272 383
e 272 386
e 272 387
e 272 388
e 272 389
e 272 390
e 272 391
e 272 392
e 272 394
e 272 395
e 272 396
e 272 397
e 272 398
e 272 399
e 272 400
e 272 402
e 272 405
e 272 413
e 272 415
e 272 416
e 272 417
e 272 418
e 272 420
e 272 421
e 272 422
e 272 423
e 272 425
e 272 429
e 272 430
e 272 432
e 272 433
e 272 436
e 272 438
e 272 439
e 272 440
e 272 443
e 272 444
e 272 449
e 272 450
e 272 452
e 272 453
e 272 454
e 272 455
e 272 456
e 272 457
e 272 458
e 272 461
e 272 462
e 272 463
e 272 464
e 272 465
e 272 468
e 272 469
e 272 471
e 272 472
e 272 473
e 272 474
e 272 475
e 272 476
e 272 477
e 272 478
e 272 479
e 272 480
e 272 484
e 272 486
e 272 501
e 272 502
e 272 509
e 272 513
e 272 522
e 272 525
e 272 529
e 272 531
e 272 534
e 272 535
e 272 543
e 272 548
e 272 550
e 272 551
e 272 552
e 272 556
e 272 558
e 272 561
e 272 563
e 272 564
e 272 569
e 272 570
e 272 578
e 272 595
e 272 606
e 272 613
e 272 616
e 272 624
e 272 627
e 272 628
e 272 629
e 272 630
e 272 631
e 272 633
e 272 642
e 272 647
e 272 654
e 272 660
e 272 668
e 272 669
e 272 670
e 272 671
e 272 672
e 272 674
e 272 676
e 272 679
e 272 687
e 272 691
e 272 707
e 272 709
e 272 721
e 272 722
e 272 741
e 272 742
e 272 748
e 272 749
e 272 757
e 272 769
e 272 773
e 272 774
e 272 796
e 272 797
e 272 799
e 272 805
e 272 807
e 272 811
e 272 817
e 272 826
e 272 827
e 272 832
e 272 846
e 273 274
e 273 276
e 273 277
e 273 283
e 273 287
e 273 293
e 273 296
e 273 300
e 273 306
e 273 316
e 273 318
e 273 319
e 273 332
e 273 334
e 273 337
e 273 338
e 273 356
e 273 358
e 273 359
e 273 366
e 273 367
e 273 393
e 273 394
e 273 421
e 273 432
e 273 447
e 273 448
e 273 453
e 273 468
e 273 471
e 273 478
e 273 480
e 273 483
e 273 484
e 273 495
e 273 502
e 273 505
e 273 507
e 273 515
e 273 516
e 273 522
e 273 529
e 273 533
e 273 535
e 273 538
e 273 548
e 273 550
e 273 551
e 273 558
e 273 559
e 273 569
e 273 570
e 273 578
e 273 582
e 273 586
e 273 588
e 273 595
e 273 610
e 273 616
e 273 627
e 273 638
e 273 641
e 273 642
e 273 647
e 273 652
e 273 654
e 273 659
e 273 663
e 273 666
e 273 672
e 273 679
e 273 687
e 273 688
e 273 695
e 273 698
e 273 703
e 273 707
e 273 709
e 273 710
e 273 712
e 273 714
e 273 715
e 273 716
e 273 717
e 273 719
e 273 728
e 273 731
e 273 733
e 273 738
e 273 739
e 273 740
e 273 741
e 273 742
e 273 744
e 273 756
e 273 757
e 273 763
e 273 767
e 273 796
e 273 799
e 273 801
e 273 807
e 273 809
e 273 815
e 273 816
e 273 817
e 273 822
e 273 823
e 273 824
e 273 828
e 273 843
e 273 850
e 274 276
e 274 277
e 274 279
e 274 280
e 274 283
e 274 287
e 274 291
e 274 293
e 274 298
e 274 300
e 274 302
e 274 306
e 274 307
e 274 308
e 274 309
e 274 313
e 274 316
e 274 318
e 274 319
e 274 325
e 274 326
e 274 328
e 274 329
e 274 330
e 274 332
e 274 334
e 274 336
e 274 337
e 274 338
e 274 344
e 274 346
e 274 348
e 274 349
e 274 351
e 274 354
e 274 356
e 274 358
e 274 364
e 274 366
e 274 367
e 274 371
e 274 372
e 274 376
e 274 379
e 274 380
e 274 382
e 274 388
e 274 389
e 274 392
e 274 393
e 274 394
e 274 395
e 274 396
e 274 398
e 274 414
e 274 415
e 274 419
e 274 420
e 274 421
e 274 428
e 274 430
e 274 432
e 274 433
e 274 434
e 274 435
e 274 443
e 274 452
e 274 453
e 274 454
e 274 455
e 274 456
e 274 459
e 274 462
e 274 466
e 274 468
e 274 470
e 274 473
e 274 478
e 274 483
e 274 484
e 274 485
e 274 489
e 274 496
e 274 504
e 274 505
e 274 508
e 274 510
e 274 513
e 274 529
e 274 531
e 274 538
e 274 543
e 274 548
e 274 549
e 274 550
e 274 551
e 274 552
e 274 577
e 274 578
e 274 588
e 274 596
e 274 606
e 274 610
e 274 615
e 274 623
e 274 624
e 274 627
e 274 628
e 274 649
e 274 650
e 274 658
e 274 679
e 274 691
e 274 706
e 274 707
e 274 709
e 274 717
e 274 721
e 274 730
e 274 732
e 274 735
e 274 736
e 274 738
e 274 740
e 274 741
e 274 742
e 274 744
e 274 745
e 274 748
e 274 753
e 274 757
e 274 759
e 274 760
e 274 769
e 274 776
e 274 778
e 274 781
e 274 782
e 274 787
e 274 799
e 274 800
e 274 803
e 274 813
e 274 822
e 274 824
e 274 827
e 274 828
e 274 829
e 274 830
e 274 832
e 274 833
e 274 835
e 274 836
e 274 848
e 274 850
e 275 276
e 275 287
e 275 290
e 275 293
e 275 296
e 275 299
e 275 317
e 275 318
e 275 329
e 275 334
e 275 338
e 275 344
e 275 370
e 275 372
e 275 377
e 275 386
e 275 413
e 275 416
e 275 418
e 275 429
e 275 436
e 275 438
e 275 440
e 275 447
e 275 450
e 275 455
e 275 456
e 275 457
e 275 472
e 275 473
e 275 477
e 275 854
e 276 277
e 276 287
e 276 290
e 276 293
e 276 299
e 276 306
e 276 307
e 276 313
e 276 317
e 276 318
e 276 329
e 276 330
e 276 334
e 276 338
e 276 348
e 276 349
e 276 354
e 276 359
e 276 367
e 276 370
e 276 372
e 276 380
e 276 386
e 276 417
e 276 418
e 276 420
e 276 430
e 276 436
e 276 438
e 276 440
e 276 443
e 276 448
e 276 450
e 276 455
e 276 456
e 276 471
e 276 472
e 276 477
e 276 483
e 276 485
e 276 493
e 276 505
e 276 509
e 276 513
e 276 522
e 276 535
e 276 550
e 276 582
e 276 627
e 276 628
e 276 641
e 276 647
e 276 654
e 276 667
e 276 672
e 276 688
e 276 694
e 276 695
e 276 697
e 276 698
e 276 699
e 276 707
e 276 716
e 276 731
e 276 741
e 276 742
e 276 744
e 276 767
e 276 801
e 276 808
e 276 815
e 276 816
e 276 823
e 276 824
e 276 828
e 276 843
e 276 848
e 277 283
e 277 300
e 277 307
e 277 316
e 277 329
e 277 330
e 277 334
e 277 337
e 277 348
e 277 349
e 277 356
e 277 366
e 277 367
e 277 380
e 277 420
e 277 421
e 277 430
e 277 432
e 277 443
e 278 280
e 278 284
e 278 287
e 278 293
e 278 300
e 278 304
e 278 318
e 278 338
e 278 340
e 278 347
e 278 355
e 278 356
e 278 358
e 278 359
e 278 363
e 278 366
e 278 372
e 278 375
e 278 376
e 278 378
e 278 385
e 278 393
e 278 394
e 278 398
e 278 399
e 278 400
e 278 405
e 278 406
e 278 423
e 278 424
e 278 431
e 278 439
e 278 443
e 278 444
e 278 457
e 278 466
e 278 470
e 278 478
e 278 484
e 278 487
e 278 488
e 278 489
e 278 490
e 278 491
e 278 492
e 278 493
e 278 494
e 278 495
e 278 496
e 278 504
e 278 514
e 278 515
e 278 516
e 278 520
e 278 529
e 278 531
e 278 535
e 278 536
e 278 537
e 278 538
e 278 539
e 278 543
e 278 549
e 278 550
e 278 551
e 278 552
e 278 555
e 278 569
e 278 570
e 278 576
e 278 588
e 278 595
e 278 596
e 278 609
e 278 613
e 278 627
e 278 641
e 278 642
e 278 644
e 278 675
e 278 677
e 278 679
e 278 680
e 278 687
e 278 688
e 278 695
e 278 701
e 278 704
e 278 707
e 278 709
e 278 717
e 278 723
e 278 724
e 278 725
e 278 731
e 278 735
e 278 740
e 278 741
e 278 742
e 278 744
e 278 753
e 278 757
e 278 764
e 278 769
e 278 776
e 278 777
e 278 779
e 278 781
e 278 782
e 278 798
e 278 804
e 278 806
e 278 807
e 278 811
e 278 812
e 278 826
e 278 829
e 278 832
e 278 835
e 279 287
e 279 292
e 279 293
e 279 301
e 279 307
e 279 308
e 279 309
e 279 310
e 279 315
e 279 322
e 279 326
e 279 328
e 279 330
e 279 334
e 279 336
e 279 340
e 279 344
e 279 347
e 279 351
e 279 358
e 279 365
e 279 368
e 279 372
e 279 374
e 279 375
e 279 380
e 279 385
e 279 387
e 279 388
e 279 389
e 279 391
e 279 393
e 279 398
e 279 400
e 279 402
e 279 405
e 279 415
e 279 419
e 279 425
e 279 428
e 279 433
e 279 452
e 279 453
e 279 454
e 279 456
e 279 462
e 279 473
e 279 475
e 279 476
e 279 477
e 279 479
e 280 282
e 280 285
e 280 287
e 280 288
e 280 290
e 280 293
e 280 294
e 280 296
e 280 299
e 280 300
e 280 304
e 280 306
e 280 309
e 280 310
e 280 312
e 280 313
e 280 316
e 280 318
e 280 319
e 280 322
e 280 323
e 280 324
e 280 327
e 280 328
e 280 329
e 280 330
e 280 331
e 280 334
e 280 335
e 280 336
e 280 338
e 280 339
e 280 341
e 280 342
e 280 346
e 280 347
e 280 348
e 280 350
e 280 353
e 280 354
e 280 356
e 280 358
e 280 359
e 280 360
e 280 361
e 280 364
e 280 366
e 280 368
e 280 371
e 280 372
e 280 374
e 280 376
e 280 379
e 280 380
e 280 381
e 280 382
e 280 387
e 280 388
e 280 391
e 280 392
e 280 393
e 280 394
e 280 395
e 280 398
e 280 400
e 280 401
e 280 402
e 280 408
e 280 414
e 280 417
e 280 419
e 280 420
e 280 422
e 280 425
e 280 426
e 280 433
e 280 435
e 280 437
e 280 441
e 280 447
e 280 448
e 280 449
e 280 453
e 280 456
e 280 458
e 280 459
e 280 462
e 280 464
e 280 465
e 280 466
e 280 468
e 280 470
e 280 475
e 280 478
e 280 480
e 280 481
e 280 482
e 280 483
e 280 484
e 280 485
e 280 487
e 280 488
e 280 489
e 280 494
e 280 496
e 280 501
e 280 502
e 280 504
e 280 505
e 280 510
e 280 513
e 280 514
e 280 515
e 280 516
e 280 520
e 280 522
e 280 524
e 280 526
e 280 527
e 280 528
e 280 529
e 280 531
e 280 535
e 280 538
e 280 543
e 280 548
e 280 549
e 280 550
e 280 551
e 280 552
e 280 560
e 280 561
e 280 562
e 280 563
e 280 564
e 280 569
e 280 570
e 280 577
e 280 578
e 280 586
e 280 587
e 280 588
e 280 589
e 280 596
e 280 603
e 280 606
e 280 607
e 280 610
e 280 612
e 280 613
e 280 614
e 280 615
e 280 616
e 280 617
e 280 618
e 280 619
e 280 621
e 280 622
e 280 623
e 280 626
e 280 627
e 280 628
e 280 629
e 280 631
e 280 633
e 280 642
e 280 647
e 280 649
e 280 650
e 280 654
e 280 656
e 280 657
e 280 658
e 280 665
e 280 666
e 280 675
e 280 676
e 280 677
e 280 686
e 280 687
e 280 691
e 280 692
e 280 697
e 280 701
e 280 705
e 280 706
e 280 707
e 280 709
e 280 710
e 280 716
e 280 717
e 280 721
e 280 725
e 280 727
e 280 730
e 280 732
e 280 735
e 280 736
e 280 737
e 280 739
e 280 740
e 280 741
e 280 742
e 280 744
e 280 745
e 280 748
e 280 750
e 280 753
e 280 755
e 280 757
e 280 759
e 280 760
e 280 763
e 280 764
e 280 768
e 280 769
e 280 772
e 280 774
e 280 775
e 280 776
e 280 777
e 280 778
e 280 781
e 280 782
e 280 785
e 280 786
e 280 787
e 280 790
e 280 794
e 280 796
e 280 799
e 280 800
e 280 803
e 280 804
e 280 807
e 280 809
e 280 812
e 280 813
e 280 814
e 280 817
e 280 822
e 280 824
e 280 826
e 280 827
e 280 829
e 280 830
e 280 832
e 280 833
e 280 835
e 280 836
e 280 839
e 280 844
e 280 845
e 280 848
e 280 850
e 280 851
e 280 855
e 281 282
e 281 284
e 281 285
e 281 287
e 281 291
e 281 293
e 281 299
e 281 315
e 281 326
e 281 333
e 281 334
e 281 336
e 281 345
e 281 353
e 281 372
e 281 388
e 281 389
e 281 398
e 281 414
e 281 452
e 281 462
e 281 479
e 282 284
e 282 285
e 282 287
e 282 290
e 282 291
e 282 298
e 282 299
e 282 301
e 282 306
e 282 308
e 282 309
e 282 310
e 282 312
e 282 314
e 282 324
e 282 326
e 282 328
e 282 329
e 282 330
e 282 334
e 282 345
e 282 346
e 282 347
e 282 351
e 282 353
e 282 354
e 282 356
e 282 360
e 282 361
e 282 374
e 282 382
e 282 386
e 282 388
e 282 389
e 282 395
e 282 400
e 282 402
e 282 405
e 282 407
e 282 408
e 282 412
e 282 414
e 282 417
e 282 419
e 282 426
e 282 436
e 282 437
e 282 442
e 282 452
e 282 453
e 282 456
e 282 462
e 282 467
e 282 468
e 282 469
e 282 471
e 282 472
e 282 473
e 282 475
e 282 476
e 282 480
e 282 854
e 283 284
e 283 287
e 283 289
e 283 290
e 283 299
e 283 300
e 283 302
e 283 314
e 283 316
e 283 318
e 283 319
e 283 320
e 283 325
e 283 328
e 283 329
e 283 331
e 283 332
e 283 334
e 283 335
e 283 336
e 283 337
e 283 338
e 283 339
e 283 342
e 283 348
e 283 356
e 283 359
e 283 362
e 283 366
e 283 367
e 283 371
e 283 372
e 283 377
e 283 386
e 283 395
e 283 396
e 283 397
e 283 407
e 283 417
e 283 418
e 283 421
e 283 422
e 283 432
e 283 440
e 283 442
e 283 443
e 283 455
e 283 456
e 283 460
e 283 469
e 283 471
e 283 472
e 284 285
e 284 287
e 284 290
e 284 291
e 284 292
e 284 293
e 284 296
e 284 298
e 284 299
e 284 300
e 284 301
e 284 304
e 284 305
e 284 307
e 284 308
e 284 309
e 284 314
e 284 315
e 284 319
e 284 320
e 284 321
e 284 322
e 284 326
e 284 328
e 284 329
e 284 330
e 284 334
e 284 335
e 284 336
e 284 337
e 284 338
e 284 341
e 284 342
e 284 343
e 284 344
e 284 345
e 284 346
e 284 347
e 284 351
e 284 352
e 284 353
e 284 354
e 284 355
e 284 356
e 284 357
e 284 359
e 284 363
e 284 365
e 284 367
e 284 368
e 284 372
e 284 373
e 284 374
e 284 375
e 284 376
e 284 378
e 284 380
e 284 382
e 284 383
e 284 385
e 284 386
e 284 387
e 284 388
e 284 389
e 284 390
e 284 391
e 284 392
e 284 393
e 284 394
e 284 395
e 284 397
e 284 398
e 284 399
e 284 400
e 284 404
e 284 405
e 284 406
e 284 407
e 284 409
e 284 410
e 284 411
e 284 412
e 284 413
e 284 414
e 284 416
e 284 417
e 284 418
e 284 419
e 284 420
e 284 422
e 284 423
e 284 424
e 284 425
e 284 426
e 284 428
e 284 430
e 284 431
e 284 432
e 284 435
e 284 436
e 284 437
e 284 439
e 284 442
e 284 444
e 284 445
e 284 446
e 284 450
e 284 452
e 284 453
e 284 456
e 284 457
e 284 458
e 284 460
e 284 462
e 284 463
e 284 466
e 284 467
e 284 468
e 284 469
e 284 470
e 284 471
e 284 472
e 284 474
e 284 475
e 284 476
e 284 477
e 284 478
e 284 479
e 284 480
e 285 287
e 285 291
e 285 299
e 285 301
e 285 310
e 285 326
e 285 334
e 285 341
e 285 345
e 285 346
e 285 351
e 285 353
e 285 354
e 285 374
e 285 388
e 285 389
e 285 400
e 285 402
e 285 405
e 285 408
e 285 414
e 285 425
e 285 452
e 285 453
e 285 462
e 285 475
e 285 476
e 286 287
e 286 290
e 286 292
e 286 294
e 286 296
e 286 300
e 286 304
e 286 306
e 286 329
e 286 330
e 286 334
e 286 344
e 286 347
e 286 356
e 286 366
e 286 367
e 286 378
e 286 380
e 286 383
e 286 390
e 286 407
e 286 417
e 286 423
e 286 426
e 286 429
e 286 439
e 286 443
e 286 450
e 286 452
e 286 457
e 286 462
e 286 468
e 286 473
e 286 476
e 286 477
e 286 854
e 287 289
e 287 290
e 287 291
e 287 292
e 287 293
e 287 294
e 287 296
e 287 297
e 287 298
e 287 299
e 287 300
e 287 301
e 287 302
e 287 303
e 287 304
e 287 305
e 287 306
e 287 307
e 287 308
e 287 309
e 287 310
e 287 311
e 287 313
e 287 314
e 287 315
e 287 316
e 287 317
e 287 318
e 287 319
e 287 320
e 287 321
e 287 322
e 287 324
e 287 325
e 287 326
e 287 327
e 287 328
e 287 329
e 287 330
e 287 331
e 287 332
e 287 333
e 287 334
e 287 335
e 287 336
e 287 337
e 287 338
e 287 339
e 287 340
e 287 342
e 287 343
e 287 344
e 287 345
e 287 347
e 287 349
e 287 350
e 287 351
e 287 352
e 287 353
e 287 354
e 287 355
e 287 356
e 287 358
e 287 359
e 287 361
e 287 362
e 287 364
e 287 365
e 287 366
e 287 367
e 287 368
e 287 369
e 287 370
e 287 371
e 287 372
e 287 373
e 287 374
e 287 375
e 287 376
e 287 377
e 287 378
e 287 379
e 287 380
e 287 381
e 287 382
e 287 384
e 287 385
e 287 386
e 287 387
e 287 388
e 287 389
e 287 390
e 287 391
e 287 392
e 287 393
e 287 394
e 287 395
e 287 396
e 287 397
e 287 398
e 287 400
e 287 402
e 287 404
e 287 405
e 287 406
e 287 407
e 287 409
e 287 410
e 287 411
e 287 413
e 287 414
e 287 415
e 287 416
e 287 417
e 287 418
e 287 419
e 287 420
e 287 421
e 287 422
e 287 423
e 287 424
e 287 425
e 287 426
e 287 427
e 287 428
e 287 429
e 287 430
e 287 431
e 287 432
e 287 433
e 287 434
e 287 435
e 287 436
e 287 437
e 287 438
e 287 439
e 287 440
e 287 441
e 287 442
e 287 443
e 287 444
e 287 445
e 287 446
e 287 447
e 287 448
e 287 449
e 287 450
e 287 451
e 287 452
e 287 453
e 287 454
e 287 455
e 287 456
e 287 457
e 287 458
e 287 459
e 287 460
e 287 461
e 287 462
e 287 463
e 287 464
e 287 465
e 287 466
e 287 468
e 287 469
e 287 470
e 287 471
e 287 472
e 287 473
e 287 474
e 287 475
e 287 476
e 287 477
e 287 478
e 287 479
e 287 480
e 287 483
e 287 484
e 287 485
e 287 486
e 287 487
e 287 488
e 287 489
e 287 493
e 287 494
e 287 495
e 287 497
e 287 499
e 287 500
e 287 501
e 287 502
e 287 504
e 287 505
e 287 506
e 287 507
e 287 508
e 287 509
e 287 510
e 287 512
e 287 514
e 287 515
e 287 516
e 287 517
e 287 519
e 287 520
e 287 522
e 287 524
e 287 526
e 287 529
e 287 531
e 287 533
e 287 535
e 287 538
e 287 542
e 287 543
e 287 548
e 287 549
e 287 550
e 287 551
e 287 552
e 287 554
e 287 556
e 287 563
e 287 566
e 287 569
e 287 570
e 287 571
e 287 572
e 287 573
e 287 574
e 287 575
e 287 578
e 287 582
e 287 583
e 287 584
e 287 586
e 287 588
e 287 589
e 287 590
e 287 592
e 287 593
e 287 594
e 287 595
e 287 596
e 287 597
e 287 598
e 287 599
e 287 602
e 287 605
e 287 606
e 287 607
e 287 608
e 287 609
e 287 610
e 287 613
e 287 615
e 287 616
e 287 623
e 287 624
e 287 625
e 287 626
e 287 627
e 287 629
e 287 633
e 287 636
e 287 637
e 287 638
e 287 641
e 287 642
e 287 644
e 287 645
e 287 646
e 287 647
e 287 648
e 287 651
e 287 652
e 287 653
e 287 654
e 287 657
e 287 659
e 287 661
e 287 663
e 287 665
e 287 666
e 287 667
e 287 668
e 287 672
e 287 673
e 287 675
e 287 677
e 287 679
e 287 680
e 287 681
e 287 683
e 287 684
e 287 686
e 287 687
e 287 688
e 287 689
e 287 690
e 287 691
e 287 693
e 287 695
e 287 697
e 287 698
e 287 699
e 287 700
e 287 701
e 287 702
e 287 703
e 287 704
e 287 705
e 287 707
e 287 708
e 287 709
e 287 710
e 287 712
e 287 713
e 287 714
e 287 715
e 287 716
e 287 717
e 287 719
e 287 720
e 287 721
e 287 723
e 287 724
e 287 726
e 287 727
e 287 728
e 287 729
e 287 731
e 287 733
e 287 734
e 287 735
e 287 737
e 287 738
e 287 739
e 287 740
e 287 741
e 287 742
e 287 743
e 287 744
e 287 745
e 287 746
e 287 747
e 287 748
e 287 751
e 287 752
e 287 753
e 287 754
e 287 755
e 287 756
e 287 757
e 287 759
e 287 761
e 287 763
e 287 764
e 287 766
e 287 767
e 287 768
e 287 769
e 287 770
e 287 771
e 287 772
e 287 773
e 287 774
e 287 775
e 287 776
e 287 777
e 287 778
e 287 779
e 287 780
e 287 781
e 287 782
e 287 783
e 287 788
e 287 791
e 287 792
e 287 793
e 287 794
e 287 796
e 287 798
e 287 799
e 287 800
e 287 801
e 287 802
e 287 803
e 287 806
e 287 807
e 287 808
e 287 809
e 287 810
e 287 811
e 287 812
e 287 813
e 287 814
e 287 815
e 287 816
e 287 817
e 287 818
e 287 819
e 287 820
e 287 821
e 287 822
e 287 823
e 287 824
e 287 825
e 287 826
e 287 827
e 287 828
e 287 829
e 287 830
e 287 831
e 287 832
e 287 833
e 287 834
e 287 835
e 287 836
e 287 837
e 287 839
e 287 840
e 287 841
e 287 842
e 287 843
e 287 844
e 287 847
e 287 848
e 287 849
e 287 850
e 287 852
e 287 854
e 288 292
e 288 293
e 288 296
e 288 300
e 288 312
e 288 322
e 288 323
e 288 330
e 288 334
e 288 346
e 288 354
e 288 360
e 288 361
e 288 372
e 288 380
e 288 381
e 288 388
e 288 403
e 288 417
e 288 419
e 288 420
e 288 434
e 288 437
e 288 448
e 288 449
e 288 451
e 288 453
e 288 457
e 288 459
e 288 461
e 288 464
e 288 465
e 288 854
e 289 290
e 289 306
e 289 316
e 289 319
e 289 338
e 289 339
e 289 342
e 289 348
e 289 354
e 289 358
e 289 359
e 289 369
e 289 370
e 289 372
e 289 377
e 289 386
e 289 389
e 289 394
e 289 395
e 289 417
e 289 418
e 289 422
e 289 428
e 289 432
e 289 438
e 289 443
e 289 447
e 289 448
e 289 455
e 289 457
e 289 469
e 289 493
e 289 495
e 289 505
e 289 508
e 289 513
e 289 515
e 289 538
e 289 548
e 289 550
e 289 551
e 289 578
e 289 579
e 289 628
e 289 651
e 289 657
e 289 658
e 289 667
e 289 668
e 289 677
e 289 688
e 289 703
e 289 707
e 289 730
e 289 732
e 289 748
e 289 766
e 289 767
e 289 779
e 289 801
e 289 803
e 289 806
e 289 811
e 289 816
e 289 821
e 289 823
e 289 828
e 289 840
e 289 852
e 290 292
e 290 293
e 290 294
e 290 296
e 290 298
e 290 299
e 290 300
e 290 302
e 290 303
e 290 304
e 290 305
e 290 306
e 290 307
e 290 308
e 290 309
e 290 314
e 290 316
e 290 317
e 290 318
e 290 319
e 290 320
e 290 323
e 290 324
e 290 326
e 290 327
e 290 328
e 290 329
e 290 330
e 290 331
e 290 332
e 290 334
e 290 335
e 290 336
e 290 337
e 290 338
e 290 339
e 290 342
e 290 344
e 290 347
e 290 348
e 290 350
e 290 354
e 290 355
e 290 356
e 290 358
e 290 359
e 290 362
e 290 363
e 290 364
e 290 365
e 290 367
e 290 368
e 290 370
e 290 371
e 290 372
e 290 376
e 290 377
e 290 378
e 290 381
e 290 383
e 290 385
e 290 386
e 290 387
e 290 388
e 290 389
e 290 390
e 290 391
e 290 393
e 290 394
e 290 395
e 290 396
e 290 397
e 290 399
e 290 403
e 290 407
e 290 413
e 290 414
e 290 416
e 290 417
e 290 418
e 290 419
e 290 420
e 290 421
e 290 422
e 290 424
e 290 425
e 290 426
e 290 429
e 290 431
e 290 432
e 290 434
e 290 436
e 290 438
e 290 439
e 290 440
e 290 441
e 290 442
e 290 443
e 290 447
e 290 448
e 290 450
e 290 455
e 290 456
e 290 457
e 290 460
e 290 461
e 290 462
e 290 464
e 290 465
e 290 469
e 290 471
e 290 472
e 290 473
e 290 476
e 290 477
e 290 854
e 291 298
e 291 299
e 291 301
e 291 307
e 291 308
e 291 309
e 291 310
e 291 326
e 291 328
e 291 334
e 291 344
e 291 345
e 291 346
e 291 351
e 291 353
e 291 358
e 291 374
e 291 376
e 291 380
e 291 388
e 291 389
e 291 402
e 291 405
e 291 408
e 291 414
e 291 415
e 291 419
e 291 452
e 291 453
e 291 462
e 291 468
e 291 473
e 291 475
e 291 476
e 292 293
e 292 294
e 292 296
e 292 300
e 292 301
e 292 302
e 292 303
e 292 304
e 292 305
e 292 306
e 292 310
e 292 314
e 292 315
e 292 322
e 292 326
e 292 327
e 292 329
e 292 330
e 292 331
e 292 332
e 292 334
e 292 336
e 292 338
e 292 340
e 292 342
e 292 344
e 292 347
e 292 351
e 292 354
e 292 355
e 292 356
e 292 358
e 292 360
e 292 363
e 292 368
e 292 372
e 292 374
e 292 375
e 292 376
e 292 377
e 292 378
e 292 380
e 292 381
e 292 383
e 292 384
e 292 388
e 292 392
e 292 394
e 292 395
e 292 396
e 292 397
e 292 398
e 292 399
e 292 400
e 292 402
e 292 403
e 292 405
e 292 406
e 292 415
e 292 417
e 292 420
e 292 422
e 292 423
e 292 424
e 292 425
e 292 426
e 292 429
e 292 431
e 292 433
e 292 434
e 292 435
e 292 438
e 292 439
e 292 440
e 292 441
e 292 443
e 292 444
e 292 445
e 292 446
e 292 448
e 292 451
e 292 452
e 292 453
e 292 454
e 292 455
e 292 456
e 292 457
e 292 458
e 292 459
e 292 460
e 292 461
e 292 462
e 292 464
e 292 465
e 292 466
e 292 472
e 292 473
e 292 475
e 292 476
e 292 477
e 292 479
e 292 854
e 293 296
e 293 298
e 293 299
e 293 300
e 293 301
e 293 302
e 293 304
e 293 305
e 293 306
e 293 307
e 293 310
e 293 314
e 293 315
e 293 317
e 293 318
e 293 322
e 293 325
e 293 326
e 293 327
e 293 329
e 293 330
e 293 332
e 293 333
e 293 334
e 293 335
e 293 336
e 293 338
e 293 340
e 293 341
e 293 342
e 293 344
e 293 345
e 293 346
e 293 347
e 293 349
e 293 351
e 293 354
e 293 356
e 293 358
e 293 359
e 293 360
e 293 361
e 293 363
e 293 364
e 293 366
e 293 368
e 293 370
e 293 372
e 293 373
e 293 374
e 293 375
e 293 376
e 293 377
e 293 378
e 293 380
e 293 381
e 293 382
e 293 383
e 293 384
e 293 385
e 293 386
e 293 388
e 293 389
e 293 392
e 293 393
e 293 394
e 293 395
e 293 396
e 293 397
e 293 398
e 293 399
e 293 400
e 293 401
e 293 402
e 293 403
e 293 404
e 293 405
e 293 406
e 293 408
e 293 415
e 293 417
e 293 418
e 293 420
e 293 422
e 293 423
e 293 424
e 293 425
e 293 426
e 293 427
e 293 429
e 293 433
e 293 434
e 293 436
e 293 437
e 293 438
e 293 439
e 293 440
e 293 443
e 293 444
e 293 445
e 293 446
e 293 448
e 293 449
e 293 450
e 293 451
e 293 452
e 293 453
e 293 454
e 293 455
e 293 456
e 293 457
e 293 458
e 293 459
e 293 460
e 293 461
e 293 462
e 293 464
e 293 465
e 293 467
e 293 468
e 293 471
e 293 472
e 293 473
e 293 474
e 293 475
e 293 476
e 293 477
e 293 478
e 293 479
e 293 480
e 293 483
e 293 485
e 293 489
e 293 493
e 293 494
e 293 496
e 293 497
e 293 501
e 293 502
e 293 504
e 293 505
e 293 507
e 293 508
e 293 509
e 293 510
e 293 513
e 293 515
e 293 516
e 293 520
e 293 522
e 293 524
e 293 526
e 293 529
e 293 530
e 293 531
e 293 532
e 293 534
e 293 535
e 293 538
e 293 540
e 293 543
e 293 548
e 293 549
e 293 550
e 293 551
e 293 552
e 293 556
e 293 557
e 293 565
e 293 569
e 293 570
e 293 578
e 293 582
e 293 585
e 293 586
e 293 588
e 293 589
e 293 591
e 293 595
e 293 601
e 293 607
e 293 610
e 293 613
e 293 615
e 293 616
e 293 620
e 293 622
e 293 623
e 293 624
e 293 627
e 293 629
e 293 630
e 293 632
e 293 633
e 293 635
e 293 638
e 293 639
e 293 640
e 293 641
e 293 642
e 293 644
e 293 647
e 293 649
e 293 654
e 293 655
e 293 656
e 293 657
e 293 661
e 293 663
e 293 665
e 293 667
e 293 669
e 293 670
e 293 671
e 293 672
e 293 673
e 293 674
e 293 675
e 293 676
e 293 678
e 293 679
e 293 682
e 293 685
e 293 687
e 293 695
e 293 697
e 293 698
e 293 700
e 293 701
e 293 702
e 293 704
e 293 706
e 293 707
e 293 712
e 293 715
e 293 716
e 293 717
e 293 718
e 293 720
e 293 721
e 293 722
e 293 723
e 293 725
e 293 729
e 293 731
e 293 735
e 293 738
e 293 739
e 293 741
e 293 742
e 293 743
e 293 744
e 293 745
e 293 746
e 293 749
e 293 750
e 293 751
e 293 752
e 293 757
e 293 759
e 293 760
e 293 762
e 293 767
e 293 769
e 293 770
e 293 771
e 293 772
e 293 773
e 293 774
e 293 776
e 293 778
e 293 779
e 293 781
e 293 782
e 293 784
e 293 785
e 293 786
e 293 787
e 293 788
e 293 789
e 293 790
e 293 796
e 293 797
e 293 799
e 293 800
e 293 801
e 293 803
e 293 804
e 293 807
e 293 812
e 293 813
e 293 815
e 293 816
e 293 818
e 293 819
e 293 820
e 293 822
e 293 823
e 293 824
e 293 825
e 293 827
e 293 828
e 293 829
e 293 830
e 293 831
e 293 832
e 293 833
e 293 835
e 293 836
e 293 837
e 293 838
e 293 842
e 293 843
e 293 844
e 293 845
e 293 846
e 293 848
e 293 849
e 293 850
e 293 851
e 293 852
e 293 853
e 293 854
e 293 855
e 294 296
e 294 300
e 294 302
e 294 303
e 294 304
e 294 314
e 294 327
e 294 329
e 294 330
e 294 331
e 294 342
e 294 355
e 294 356
e 294 366
e 294 368
e 294 387
e 294 394
e 294 417
e 294 429
e 294 431
e 294 440
e 294 441
e 294 472
e 295 296
e 295 300
e 295 307
e 295 311
e 295 314
e 295 319
e 295 329
e 295 330
e 295 332
e 295 339
e 295 343
e 295 344
e 295 346
e 295 347
e 295 369
e 295 380
e 295 390
e 295 413
e 295 422
e 295 430
e 295 436
e 295 453
e 295 463
e 295 469
e 295 471
e 295 474
e 295 478
e 295 480
e 296 297
e 296 298
e 296 299
e 296 300
e 296 302
e 296 303
e 296 306
e 296 308
e 296 309
e 296 311
e 296 314
e 296 317
e 296 318
e 296 319
e 296 322
e 296 324
e 296 325
e 296 327
e 296 328
e 296 329
e 296 330
e 296 331
e 296 332
e 296 334
e 296 335
e 296 338
e 296 342
e 296 344
e 296 345
e 296 346
e 296 347
e 296 349
e 296 352
e 296 354
e 296 355
e 296 356
e 296 358
e 296 360
e 296 362
e 296 363
e 296 364
e 296 366
e 296 367
e 296 368
e 296 372
e 296 376
e 296 377
e 296 379
e 296 380
e 296 381
e 296 382
e 296 384
e 296 388
e 296 390
e 296 392
e 296 394
e 296 395
e 296 396
e 296 399
e 296 401
e 296 403
e 296 407
e 296 409
e 296 410
e 296 411
e 296 413
e 296 414
e 296 415
e 296 416
e 296 417
e 296 419
e 296 420
e 296 422
e 296 424
e 296 425
e 296 429
e 296 431
e 296 434
e 296 436
e 296 437
e 296 438
e 296 439
e 296 440
e 296 441
e 296 443
e 296 445
e 296 446
e 296 447
e 296 448
e 296 449
e 296 450
e 296 451
e 296 453
e 296 454
e 296 455
e 296 456
e 296 457
e 296 458
e 296 459
e 296 460
e 296 461
e 296 462
e 296 464
e 296 465
e 296 466
e 296 468
e 296 470
e 296 471
e 296 473
e 296 474
e 296 477
e 296 478
e 296 480
e 296 854
e 297 335
e 297 338
e 297 344
e 297 352
e 297 367
e 297 380
e 297 384
e 297 388
e 297 395
e 297 420
e 297 447
e 297 454
e 297 466
e 297 470
e 298 299
e 298 307
e 298 308
e 298 309
e 298 313
e 298 314
e 298 316
e 298 327
e 298 328
e 298 334
e 298 338
e 298 344
e 298 354
e 298 355
e 298 356
e 298 358
e 298 364
e 298 368
e 298 372
e 298 373
e 298 376
e 298 380
e 298 382
e 298 383
e 298 394
e 298 414
e 298 415
e 298 417
e 298 419
e 298 429
e 298 431
e 298 440
e 298 441
e 298 444
e 298 457
e 298 468
e 298 473
e 298 478
e 298 487
e 298 500
e 298 501
e 298 502
e 298 506
e 298 507
e 298 508
e 298 509
e 298 510
e 298 512
e 298 513
e 298 514
e 298 522
e 298 531
e 298 534
e 298 535
e 298 541
e 298 543
e 298 544
e 298 545
e 298 546
e 298 547
e 298 548
e 298 549
e 298 551
e 298 552
e 298 556
e 298 570
e 298 578
e 298 586
e 298 613
e 298 624
e 298 628
e 298 630
e 298 633
e 298 642
e 298 647
e 298 654
e 298 667
e 298 669
e 298 670
e 298 671
e 298 672
e 298 674
e 298 676
e 298 687
e 298 700
e 298 704
e 298 707
e 298 721
e 298 722
e 298 749
e 298 756
e 298 757
e 298 762
e 298 765
e 298 769
e 298 770
e 298 773
e 298 774
e 298 784
e 298 789
e 298 796
e 298 797
e 298 807
e 298 809
e 298 848
e 299 308
e 299 309
e 299 310
e 299 312
e 299 314
e 299 317
e 299 318
e 299 324
e 299 325
e 299 326
e 299 328
e 299 329
e 299 330
e 299 331
e 299 334
e 299 338
e 299 341
e 299 342
e 299 345
e 299 346
e 299 349
e 299 353
e 299 354
e 299 356
e 299 360
e 299 361
e 299 366
e 299 370
e 299 372
e 299 382
e 299 386
e 299 388
e 299 389
e 299 400
e 299 408
e 299 414
e 299 415
e 299 418
e 299 419
e 299 425
e 299 429
e 299 436
e 299 438
e 299 440
e 299 449
e 299 450
e 299 451
e 299 452
e 299 453
e 299 455
e 299 456
e 299 462
e 299 468
e 299 472
e 299 475
e 299 477
e 299 854
e 300 302
e 300 303
e 300 304
e 300 305
e 300 307
e 300 311
e 300 314
e 300 316
e 300 317
e 300 318
e 300 319
e 300 320
e 300 325
e 300 327
e 300 328
e 300 329
e 300 330
e 300 331
e 300 332
e 300 334
e 300 337
e 300 338
e 300 339
e 300 340
e 300 342
e 300 344
e 300 346
e 300 347
e 300 348
e 300 349
e 300 350
e 300 355
e 300 356
e 300 358
e 300 359
e 300 360
e 300 363
e 300 365
e 300 366
e 300 367
e 300 368
e 300 372
e 300 375
e 300 376
e 300 377
e 300 378
e 300 380
e 300 381
e 300 382
e 300 384
e 300 385
e 300 387
e 300 389
e 300 390
e 300 391
e 300 392
e 300 393
e 300 394
e 300 395
e 300 396
e 300 399
e 300 403
e 300 405
e 300 406
e 300 416
e 300 417
e 300 420
e 300 421
e 300 422
e 300 423
e 300 424
e 300 425
e 300 428
e 300 429
e 300 431
e 300 432
e 300 434
e 300 436
e 300 439
e 300 440
e 300 441
e 300 444
e 300 448
e 300 450
e 300 451
e 300 452
e 300 453
e 300 455
e 300 456
e 300 457
e 300 459
e 300 460
e 300 461
e 300 462
e 300 464
e 300 465
e 300 468
e 300 471
e 300 472
e 300 474
e 300 477
e 300 478
e 300 480
e 300 854
e 301 310
e 301 315
e 301 322
e 301 326
e 301 330
e 301 333
e 301 334
e 301 336
e 301 340
e 301 341
e 301 344
e 301 345
e 301 346
e 301 347
e 301 351
e 301 353
e 301 363
e 301 368
e 301 372
e 301 374
e 301 375
e 301 378
e 301 380
e 301 388
e 301 389
e 301 398
e 301 399
e 301 400
e 301 402
e 301 405
e 301 408
e 301 423
e 301 425
e 301 433
e 301 439
e 301 452
e 301 453
e 301 457
e 301 462
e 301 475
e 301 476
e 301 477
e 301 479
e 302 303
e 302 313
e 302 314
e 302 319
e 302 325
e 302 327
e 302 329
e 302 330
e 302 331
e 302 332
e 302 334
e 302 335
e 302 336
e 302 338
e 302 342
e 302 344
e 302 355
e 302 356
e 302 362
e 302 363
e 302 367
e 302 368
e 302 369
e 302 370
e 302 371
e 302 372
e 302 376
e 302 377
e 302 380
e 302 384
e 302 388
e 302 394
e 302 395
e 302 396
e 302 397
e 302 399
e 302 417
e 302 420
e 302 425
e 302 428
e 302 429
e 302 431
e 302 433
e 302 434
e 302 435
e 302 440
e 302 441
e 302 447
e 302 448
e 302 451
e 302 452
e 302 453
e 302 454
e 302 455
e 302 457
e 302 459
e 302 460
e 302 461
e 302 464
e 302 465
e 302 472
e 302 854
e 303 314
e 303 327
e 303 330
e 303 331
e 303 334
e 303 342
e 303 355
e 303 356
e 303 363
e 303 368
e 303 376
e 303 394
e 303 399
e 303 417
e 303 425
e 303 429
e 303 431
e 303 440
e 303 441
e 303 472
e 304 305
e 304 306
e 304 319
e 304 329
e 304 340
e 304 347
e 304 356
e 304 363
e 304 366
e 304 372
e 304 375
e 304 376
e 304 378
e 304 380
e 304 383
e 304 387
e 304 399
e 304 405
e 304 406
e 304 417
e 304 423
e 304 424
e 304 426
e 304 429
e 304 439
e 304 441
e 304 444
e 304 453
e 304 476
e 305 306
e 305 307
e 305 319
e 305 326
e 305 330
e 305 340
e 305 344
e 305 347
e 305 356
e 305 368
e 305 372
e 305 375
e 305 376
e 305 378
e 305 380
e 305 399
e 305 406
e 305 420
e 305 423
e 305 424
e 305 439
e 305 444
e 305 452
e 305 457
e 305 462
e 305 476
e 305 477
e 305 479
e 306 307
e 306 313
e 306 318
e 306 319
e 306 329
e 306 334
e 306 347
e 306 354
e 306 356
e 306 358
e 306 359
e 306 364
e 306 366
e 306 367
e 306 372
e 306 378
e 306 383
e 306 385
e 306 386
e 306 393
e 306 394
e 306 400
e 306 407
e 306 417
e 306 420
e 306 424
e 306 426
e 306 439
e 306 443
e 306 444
e 306 447
e 306 453
e 306 462
e 306 468
e 306 471
e 306 473
e 306 474
e 306 476
e 306 478
e 306 481
e 306 482
e 306 483
e 306 484
e 306 485
e 306 486
e 306 493
e 306 499
e 306 502
e 306 505
e 306 509
e 306 513
e 306 515
e 306 516
e 306 522
e 306 526
e 306 529
e 306 535
e 306 538
e 306 543
e 306 548
e 306 550
e 306 551
e 306 552
e 306 560
e 306 561
e 306 562
e 306 563
e 306 564
e 306 569
e 306 570
e 306 578
e 306 589
e 306 595
e 306 606
e 306 607
e 306 613
e 306 616
e 306 623
e 306 627
e 306 628
e 306 629
e 306 631
e 306 633
e 306 642
e 306 647
e 306 651
e 306 654
e 306 658
e 306 661
e 306 662
e 306 663
e 306 666
e 306 667
e 306 668
e 306 676
e 306 679
e 306 686
e 306 687
e 306 688
e 306 691
e 306 694
e 306 695
e 306 697
e 306 699
e 306 704
e 306 707
e 306 709
e 306 710
e 306 712
e 306 713
e 306 715
e 306 716
e 306 721
e 306 730
e 306 731
e 306 732
e 306 740
e 306 741
e 306 742
e 306 744
e 306 748
e 306 752
e 306 753
e 306 754
e 306 757
e 306 759
e 306 766
e 306 767
e 306 769
e 306 777
e 306 779
e 306 780
e 306 782
e 306 783
e 306 791
e 306 792
e 306 793
e 306 796
e 306 798
e 306 799
e 306 800
e 306 802
e 306 803
e 306 806
e 306 807
e 306 808
e 306 811
e 306 816
e 306 817
e 306 819
e 306 820
e 306 821
e 306 822
e 306 823
e 306 824
e 306 826
e 306 827
e 306 828
e 306 831
e 306 832
e 306 834
e 306 839
e 306 841
e 306 843
e 306 844
e 306 847
e 306 848
e 306 850
e 306 852
e 306 854
e 307 308
e 307 309
e 307 314
e 307 319
e 307 321
e 307 326
e 307 328
e 307 329
e 307 330
e 307 334
e 307 339
e 307 343
e 307 344
e 307 345
e 307 346
e 307 347
e 307 348
e 307 349
e 307 352
e 307 356
e 307 357
e 307 358
e 307 359
e 307 365
e 307 367
e 307 368
e 307 369
e 307 372
e 307 373
e 307 376
e 307 378
e 307 380
e 307 383
e 307 385
e 307 387
e 307 388
e 307 389
e 307 390
e 307 391
e 307 393
e 307 395
e 307 400
e 307 404
e 307 412
e 307 413
e 307 414
e 307 415
e 307 416
e 307 417
e 307 418
e 307 419
e 307 420
e 307 422
e 307 424
e 307 426
e 307 428
e 307 430
e 307 437
e 307 439
e 307 442
e 307 443
e 307 444
e 307 450
e 307 452
e 307 453
e 307 454
e 307 460
e 307 462
e 307 463
e 307 467
e 307 468
e 307 469
e 307 471
e 307 473
e 307 474
e 307 478
e 307 479
e 307 480
e 308 309
e 308 310
e 308 322
e 308 328
e 308 330
e 308 334
e 308 344
e 308 354
e 308 358
e 308 364
e 308 365
e 308 368
e 308 376
e 308 380
e 308 382
e 308 385
e 308 387
e 308 391
e 308 393
e 308 394
e 308 398
e 308 400
e 308 414
e 308 415
e 308 417
e 308 419
e 308 425
e 308 428
e 308 429
e 308 431
e 308 433
e 308 441
e 308 468
e 308 473
e 309 310
e 309 316
e 309 322
e 309 328
e 309 330
e 309 334
e 309 344
e 309 346
e 309 354
e 309 358
e 309 364
e 309 365
e 309 368
e 309 376
e 309 380
e 309 382
e 309 385
e 309 387
e 309 391
e 309 393
e 309 394
e 309 398
e 309 400
e 309 414
e 309 415
e 309 417
e 309 419
e 309 425
e 309 428
e 309 429
e 309 431
e 309 433
e 309 441
e 309 468
e 309 473
e 309 488
e 309 494
e 309 502
e 309 504
e 309 505
e 309 516
e 309 520
e 309 522
e 309 526
e 309 527
e 309 528
e 309 531
e 309 548
e 309 570
e 309 586
e 309 587
e 309 593
e 309 594
e 309 596
e 309 603
e 309 607
e 309 613
e 309 615
e 309 616
e 309 617
e 309 619
e 309 622
e 309 623
e 309 626
e 309 627
e 309 642
e 309 647
e 309 656
e 309 657
e 309 665
e 309 675
e 309 676
e 309 687
e 309 692
e 309 701
e 309 707
e 309 716
e 309 725
e 309 736
e 309 744
e 309 755
e 309 760
e 309 761
e 309 763
e 309 769
e 309 778
e 309 790
e 309 807
e 309 809
e 309 813
e 309 817
e 309 829
e 309 839
e 309 845
e 310 312
e 310 315
e 310 322
e 310 324
e 310 326
e 310 330
e 310 333
e 310 334
e 310 336
e 310 341
e 310 344
e 310 345
e 310 346
e 310 347
e 310 351
e 310 353
e 310 354
e 310 360
e 310 361
e 310 368
e 310 372
e 310 374
e 310 375
e 310 388
e 310 389
e 310 391
e 310 393
e 310 398
e 310 400
e 310 402
e 310 405
e 310 408
e 310 419
e 310 425
e 310 433
e 310 452
e 310 453
e 310 456
e 310 462
e 310 475
e 310 476
e 310 477
e 310 479
e 311 319
e 311 332
e 311 335
e 311 344
e 311 346
e 311 372
e 311 379
e 311 380
e 311 384
e 311 389
e 311 390
e 311 436
e 311 456
e 311 457
e 311 460
e 311 466
e 311 471
e 311 474
e 311 478
e 311 480
e 312 322
e 312 323
e 312 324
e 312 328
e 312 330
e 312 334
e 312 346
e 312 353
e 312 354
e 312 360
e 312 361
e 312 372
e 312 376
e 312 380
e 312 388
e 312 408
e 312 417
e 312 419
e 312 420
e 312 437
e 312 448
e 312 449
e 312 453
e 312 459
e 312 464
e 312 465
e 312 475
e 313 316
e 313 318
e 313 319
e 313 325
e 313 330
e 313 332
e 313 336
e 313 338
e 313 346
e 313 354
e 313 356
e 313 358
e 313 359
e 313 364
e 313 367
e 313 371
e 313 372
e 313 373
e 313 379
e 313 380
e 313 382
e 313 383
e 313 385
e 313 388
e 313 392
e 313 394
e 313 395
e 313 400
e 313 417
e 313 428
e 313 433
e 313 434
e 313 435
e 313 444
e 313 452
e 313 453
e 313 455
e 313 456
e 313 459
e 313 466
e 313 468
e 313 474
e 313 485
e 313 493
e 313 502
e 313 505
e 313 507
e 313 508
e 313 509
e 313 510
e 313 513
e 313 522
e 313 529
e 313 535
e 313 538
e 313 543
e 313 544
e 313 545
e 313 546
e 313 547
e 313 548
e 313 549
e 313 550
e 313 551
e 313 558
e 313 569
e 313 570
e 313 589
e 313 613
e 313 623
e 313 624
e 313 626
e 313 627
e 313 628
e 313 633
e 313 636
e 313 642
e 313 647
e 313 653
e 313 657
e 313 660
e 313 667
e 313 669
e 313 670
e 313 672
e 313 674
e 313 676
e 313 687
e 313 688
e 313 690
e 313 694
e 313 695
e 313 697
e 313 699
e 313 704
e 313 707
e 313 711
e 313 720
e 313 721
e 313 722
e 313 732
e 313 734
e 313 741
e 313 742
e 313 744
e 313 745
e 313 748
e 313 754
e 313 757
e 313 758
e 313 765
e 313 766
e 313 769
e 313 770
e 313 771
e 313 774
e 313 780
e 313 782
e 313 788
e 313 795
e 313 796
e 313 799
e 313 801
e 313 803
e 313 805
e 313 808
e 313 810
e 313 818
e 313 824
e 313 825
e 313 834
e 313 838
e 313 840
e 313 842
e 313 847
e 313 848
e 313 851
e 313 853
e 313 855
e 314 318
e 314 319
e 314 323
e 314 324
e 314 325
e 314 326
e 314 327
e 314 328
e 314 329
e 314 330
e 314 331
e 314 334
e 314 339
e 314 342
e 314 343
e 314 346
e 314 347
e 314 354
e 314 355
e 314 356
e 314 357
e 314 362
e 314 364
e 314 368
e 314 369
e 314 372
e 314 373
e 314 376
e 314 380
e 314 383
e 314 386
e 314 388
e 314 389
e 314 390
e 314 394
e 314 396
e 314 400
e 314 404
e 314 412
e 314 413
e 314 414
e 314 416
e 314 417
e 314 418
e 314 420
e 314 421
e 314 422
e 314 426
e 314 429
e 314 430
e 314 431
e 314 436
e 314 437
e 314 440
e 314 441
e 314 453
e 314 456
e 314 457
e 314 462
e 314 463
e 314 464
e 314 465
e 314 467
e 314 469
e 314 471
e 314 472
e 314 473
e 314 474
e 314 478
e 314 479
e 314 480
e 315 322
e 315 326
e 315 330
e 315 333
e 315 334
e 315 336
e 315 340
e 315 341
e 315 344
e 315 345
e 315 347
e 315 351
e 315 363
e 315 368
e 315 372
e 315 374
e 315 375
e 315 378
e 315 380
e 315 398
e 315 399
e 315 400
e 315 402
e 315 405
e 315 408
e 315 423
e 315 425
e 315 433
e 315 439
e 315 452
e 315 453
e 315 457
e 315 462
e 315 475
e 315 476
e 315 477
e 315 479
e 316 319
e 316 328
e 316 330
e 316 334
e 316 337
e 316 338
e 316 339
e 316 348
e 316 350
e 316 354
e 316 356
e 316 358
e 316 359
e 316 364
e 316 366
e 316 367
e 316 368
e 316 373
e 316 377
e 316 383
e 316 386
e 316 393
e 316 394
e 316 395
e 316 418
e 316 421
e 316 422
e 316 432
e 316 443
e 316 444
e 316 447
e 316 448
e 316 469
e 316 470
e 316 478
e 316 480
e 316 484
e 316 488
e 316 494
e 316 497
e 316 501
e 316 502
e 316 504
e 316 505
e 316 507
e 316 509
e 316 513
e 316 515
e 316 516
e 316 522
e 316 531
e 316 533
e 316 535
e 316 543
e 316 544
e 316 545
e 316 546
e 316 547
e 316 548
e 316 549
e 316 550
e 316 551
e 316 552
e 316 556
e 316 569
e 316 570
e 316 571
e 316 572
e 316 573
e 316 574
e 316 575
e 316 578
e 316 586
e 316 588
e 316 596
e 316 607
e 316 613
e 316 616
e 316 617
e 316 619
e 316 622
e 316 623
e 316 624
e 316 626
e 316 628
e 316 633
e 316 641
e 316 642
e 316 647
e 316 654
e 316 657
e 316 659
e 316 666
e 316 667
e 316 669
e 316 672
e 316 674
e 316 676
e 316 679
e 316 686
e 316 687
e 316 688
e 316 692
e 316 707
e 316 710
e 316 714
e 316 715
e 316 717
e 316 719
e 316 721
e 316 722
e 316 724
e 316 728
e 316 736
e 316 739
e 316 740
e 316 742
e 316 745
e 316 756
e 316 757
e 316 763
e 316 765
e 316 769
e 316 770
e 316 774
e 316 778
e 316 796
e 316 797
e 316 799
e 316 807
e 316 809
e 316 817
e 316 829
e 316 839
e 316 843
e 316 848
e 317 318
e 317 319
e 317 329
e 317 330
e 317 334
e 317 338
e 317 342
e 317 349
e 317 356
e 317 361
e 317 366
e 317 370
e 317 372
e 317 382
e 317 383
e 317 386
e 317 387
e 317 391
e 317 392
e 317 395
e 317 415
e 317 417
e 317 418
e 317 429
e 317 432
e 317 436
e 317 438
e 317 440
e 317 444
e 317 448
e 317 449
e 317 450
e 317 451
e 317 453
e 317 455
e 317 456
e 317 457
e 317 461
e 317 468
e 317 472
e 317 477
e 317 478
e 317 483
e 317 493
e 317 497
e 317 501
e 317 508
e 317 526
e 317 529
e 317 530
e 317 531
e 317 532
e 317 548
e 317 550
e 317 557
e 317 565
e 317 569
e 317 570
e 317 622
e 317 629
e 317 635
e 317 638
e 317 672
e 317 674
e 317 678
e 317 679
e 317 687
e 317 701
e 317 707
e 317 722
e 317 741
e 317 744
e 317 752
e 317 757
e 317 770
e 317 799
e 317 815
e 317 818
e 317 833
e 317 837
e 317 842
e 317 850
e 317 853
e 317 854
e 318 319
e 318 325
e 318 329
e 318 330
e 318 331
e 318 334
e 318 336
e 318 338
e 318 342
e 318 349
e 318 356
e 318 358
e 318 359
e 318 366
e 318 370
e 318 371
e 318 372
e 318 377
e 318 379
e 318 382
e 318 386
e 318 387
e 318 391
e 318 392
e 318 394
e 318 395
e 318 415
e 318 417
e 318 418
e 318 429
e 318 432
e 318 433
e 318 435
e 318 436
e 318 438
e 318 440
e 318 448
e 318 449
e 318 450
e 318 451
e 318 453
e 318 455
e 318 456
e 318 457
e 318 459
e 318 461
e 318 462
e 318 466
e 318 468
e 318 471
e 318 472
e 318 477
e 318 483
e 318 484
e 318 493
e 318 495
e 318 502
e 318 504
e 318 505
e 318 508
e 318 514
e 318 515
e 318 516
e 318 522
e 318 529
e 318 531
e 318 535
e 318 538
e 318 543
e 318 548
e 318 549
e 318 550
e 318 551
e 318 552
e 318 569
e 318 570
e 318 576
e 318 582
e 318 610
e 318 615
e 318 616
e 318 627
e 318 641
e 318 642
e 318 647
e 318 654
e 318 663
e 318 672
e 318 675
e 318 679
e 318 688
e 318 695
e 318 697
e 318 698
e 318 703
e 318 707
e 318 712
e 318 716
e 318 717
e 318 727
e 318 728
e 318 731
e 318 737
e 318 738
e 318 741
e 318 742
e 318 744
e 318 757
e 318 759
e 318 767
e 318 768
e 318 769
e 318 775
e 318 777
e 318 781
e 318 782
e 318 794
e 318 796
e 318 799
e 318 800
e 318 801
e 318 807
e 318 811
e 318 812
e 318 814
e 318 815
e 318 816
e 318 822
e 318 823
e 318 824
e 318 826
e 318 827
e 318 828
e 318 829
e 318 830
e 318 832
e 318 833
e 318 843
e 318 850
e 318 854
e 319 325
e 319 328
e 319 329
e 319 330
e 319 331
e 319 332
e 319 334
e 319 338
e 319 339
e 319 342
e 319 343
e 319 344
e 319 345
e 319 346
e 319 347
e 319 348
e 319 349
e 319 350
e 319 356
e 319 358
e 319 359
e 319 366
e 319 367
e 319 368
e 319 369
e 319 370
e 319 372
e 319 377
e 319 380
e 319 381
e 319 382
e 319 386
e 319 387
e 319 388
e 319 390
e 319 391
e 319 392
e 319 393
e 319 394
e 319 395
e 319 400
e 319 413
e 319 417
e 319 418
e 319 420
e 319 422
e 319 424
e 319 428
e 319 429
e 319 430
e 319 432
e 319 433
e 319 434
e 319 435
e 319 436
e 319 439
e 319 441
e 319 443
e 319 447
e 319 448
e 319 452
e 319 453
e 319 454
e 319 455
e 319 457
e 319 460
e 319 461
e 319 463
e 319 464
e 319 468
e 319 469
e 319 471
e 319 474
e 319 478
e 319 480
e 320 329
e 320 337
e 320 338
e 320 386
e 320 395
e 320 407
e 320 417
e 320 421
e 320 432
e 320 440
e 320 442
e 320 456
e 320 469
e 320 471
e 320 472
e 321 329
e 321 338
e 321 343
e 321 345
e 321 352
e 321 356
e 321 367
e 321 373
e 321 375
e 321 380
e 321 394
e 321 395
e 321 400
e 321 404
e 321 413
e 321 417
e 321 418
e 321 422
e 321 424
e 321 430
e 321 437
e 321 442
e 321 443
e 321 450
e 321 452
e 321 457
e 321 459
e 321 460
e 321 463
e 321 484
e 321 487
e 321 493
e 321 515
e 321 516
e 321 520
e 321 535
e 321 538
e 321 543
e 321 549
e 321 552
e 321 554
e 321 569
e 321 570
e 321 589
e 321 615
e 321 625
e 321 641
e 321 642
e 321 704
e 321 741
e 321 751
e 321 757
e 321 764
e 321 769
e 321 772
e 321 773
e 321 781
e 321 782
e 321 794
e 321 806
e 321 814
e 321 825
e 321 831
e 322 323
e 322 326
e 322 327
e 322 330
e 322 333
e 322 334
e 322 336
e 322 341
e 322 344
e 322 345
e 322 346
e 322 347
e 322 351
e 322 354
e 322 361
e 322 368
e 322 372
e 322 374
e 322 375
e 322 376
e 322 380
e 322 388
e 322 391
e 322 393
e 322 398
e 322 400
e 322 402
e 322 405
e 322 408
e 322 409
e 322 410
e 322 411
e 322 417
e 322 419
e 322 420
e 322 422
e 322 424
e 322 425
e 322 433
e 322 437
e 322 445
e 322 446
e 322 448
e 322 449
e 322 451
e 322 452
e 322 453
e 322 456
e 322 459
e 322 462
e 322 464
e 322 465
e 322 470
e 322 475
e 322 476
e 322 477
e 322 479
e 323 324
e 323 330
e 323 334
e 323 342
e 323 346
e 323 354
e 323 361
e 323 364
e 323 372
e 323 380
e 323 388
e 323 417
e 323 419
e 323 420
e 323 429
e 323 431
e 323 437
e 323 441
e 323 448
e 323 449
e 323 457
e 323 459
e 323 464
e 323 465
e 324 334
e 324 342
e 324 346
e 324 353
e 324 354
e 324 360
e 324 361
e 324 362
e 324 364
e 324 372
e 324 388
e 324 408
e 324 429
e 324 431
e 324 434
e 324 441
e 324 453
e 324 457
e 324 475
e 325 330
e 325 331
e 325 332
e 325 334
e 325 338
e 325 342
e 325 356
e 325 367
e 325 372
e 325 377
e 325 380
e 325 382
e 325 388
e 325 392
e 325 395
e 325 417
e 325 418
e 325 428
e 325 433
e 325 434
e 325 435
e 325 440
e 325 448
e 325 451
e 325 452
e 325 453
e 325 455
e 325 456
e 325 457
e 325 462
e 325 468
e 325 472
e 325 854
e 326 329
e 326 330
e 326 333
e 326 334
e 326 336
e 326 340
e 326 341
e 326 344
e 326 345
e 326 346
e 326 347
e 326 351
e 326 353
e 326 357
e 326 358
e 326 363
e 326 368
e 326 372
e 326 374
e 326 375
e 326 376
e 326 378
e 326 380
e 326 383
e 326 386
e 326 388
e 326 389
e 326 390
e 326 395
e 326 398
e 326 399
e 326 400
e 326 402
e 326 405
e 326 407
e 326 408
e 326 412
e 326 414
e 326 415
e 326 417
e 326 423
e 326 425
e 326 426
e 326 433
e 326 436
e 326 437
e 326 439
e 326 442
e 326 444
e 326 452
e 326 453
e 326 454
e 326 456
e 326 457
e 326 462
e 326 467
e 326 469
e 326 471
e 326 472
e 326 473
e 326 475
e 326 476
e 326 477
e 326 479
e 326 480
e 327 328
e 327 330
e 327 331
e 327 334
e 327 335
e 327 338
e 327 342
e 327 346
e 327 347
e 327 354
e 327 355
e 327 356
e 327 358
e 327 363
e 327 364
e 327 368
e 327 376
e 327 380
e 327 388
e 327 394
e 327 397
e 327 399
e 327 401
e 327 409
e 327 410
e 327 411
e 327 414
e 327 415
e 327 417
e 327 422
e 327 424
e 327 425
e 327 429
e 327 431
e 327 437
e 327 438
e 327 440
e 327 441
e 327 443
e 327 445
e 327 446
e 327 449
e 327 451
e 327 452
e 327 453
e 327 454
e 327 456
e 327 458
e 327 462
e 327 464
e 327 470
e 327 473
e 327 478
e 327 480
e 328 329
e 328 330
e 328 331
e 328 334
e 328 336
e 328 338
e 328 339
e 328 344
e 328 346
e 328 348
e 328 350
e 328 353
e 328 355
e 328 356
e 328 358
e 328 359
e 328 361
e 328 362
e 328 364
e 328 365
e 328 367
e 328 368
e 328 371
e 328 372
e 328 376
e 328 380
e 328 381
e 328 382
e 328 385
e 328 387
e 328 391
e 328 393
e 328 394
e 328 395
e 328 397
e 328 403
e 328 408
e 328 414
e 328 415
e 328 417
e 328 419
e 328 422
e 328 428
e 328 429
e 328 431
e 328 433
e 328 440
e 328 441
e 328 448
e 328 464
e 328 468
e 328 473
e 329 330
e 329 331
e 329 332
e 329 334
e 329 335
e 329 336
e 329 337
e 329 338
e 329 339
e 329 343
e 329 344
e 329 345
e 329 346
e 329 347
e 329 348
e 329 349
e 329 350
e 329 351
e 329 352
e 329 356
e 329 358
e 329 359
e 329 362
e 329 365
e 329 366
e 329 367
e 329 368
e 329 369
e 329 370
e 329 371
e 329 372
e 329 373
e 329 374
e 329 375
e 329 377
e 329 380
e 329 381
e 329 382
e 329 384
e 329 385
e 329 386
e 329 387
e 329 389
e 329 390
e 329 391
e 329 392
e 329 393
e 329 394
e 329 395
e 329 396
e 329 397
e 329 400
e 329 404
e 329 407
e 329 413
e 329 415
e 329 416
e 329 417
e 329 418
e 329 420
e 329 421
e 329 422
e 329 424
e 329 428
e 329 429
e 329 430
e 329 432
e 329 434
e 329 435
e 329 436
e 329 437
e 329 438
e 329 439
e 329 440
e 329 441
e 329 442
e 329 443
e 329 448
e 329 449
e 329 450
e 329 451
e 329 452
e 329 453
e 329 455
e 329 456
e 329 457
e 329 458
e 329 459
e 329 460
e 329 461
e 329 462
e 329 463
e 329 464
e 329 465
e 329 466
e 329 468
e 329 469
e 329 471
e 329 472
e 329 473
e 329 474
e 329 477
e 329 478
e 329 480
e 329 854
e 330 331
e 330 332
e 330 334
e 330 338
e 330 339
e 330 340
e 330 342
e 330 343
e 330 344
e 330 346
e 330 347
e 330 348
e 330 349
e 330 350
e 330 354
e 330 355
e 330 356
e 330 357
e 330 358
e 330 359
e 330 361
e 330 363
e 330 365
e 330 366
e 330 367
e 330 368
e 330 369
e 330 372
e 330 373
e 330 375
e 330 376
e 330 377
e 330 378
e 330 380
e 330 381
e 330 383
e 330 384
e 330 385
e 330 387
e 330 388
e 330 389
e 330 390
e 330 391
e 330 393
e 330 394
e 330 395
e 330 396
e 330 397
e 330 398
e 330 399
e 330 400
e 330 401
e 330 402
e 330 404
e 330 405
e 330 412
e 330 413
e 330 415
e 330 416
e 330 417
e 330 419
e 330 420
e 330 421
e 330 422
e 330 423
e 330 425
e 330 426
e 330 428
e 330 429
e 330 430
e 330 431
e 330 432
e 330 433
e 330 434
e 330 435
e 330 436
e 330 437
e 330 438
e 330 439
e 330 440
e 330 441
e 330 443
e 330 448
e 330 449
e 330 450
e 330 451
e 330 452
e 330 453
e 330 454
e 330 455
e 330 456
e 330 457
e 330 458
e 330 459
e 330 460
e 330 461
e 330 462
e 330 463
e 330 464
e 330 465
e 330 467
e 330 468
e 330 469
e 330 471
e 330 472
e 330 473
e 330 474
e 330 475
e 330 476
e 330 477
e 330 478
e 330 479
e 330 480
e 330 854
e 331 334
e 331 338
e 331 342
e 331 350
e 331 355
e 331 356
e 331 359
e 331 368
e 331 381
e 331 387
e 331 391
e 331 393
e 331 394
e 331 395
e 331 417
e 331 418
e 331 429
e 331 431
e 331 440
e 331 441
e 331 464
e 331 472
e 332 335
e 332 336
e 332 338
e 332 342
e 332 344
e 332 346
e 332 356
e 332 362
e 332 367
e 332 369
e 332 370
e 332 371
e 332 372
e 332 377
e 332 380
e 332 384
e 332 388
e 332 390
e 332 395
e 332 396
e 332 397
e 332 417
e 332 420
e 332 428
e 332 433
e 332 434
e 332 435
e 332 436
e 332 447
e 332 448
e 332 451
e 332 452
e 332 453
e 332 454
e 332 455
e 332 457
e 332 459
e 332 460
e 332 461
e 332 464
e 332 465
e 332 468
e 332 471
e 332 474
e 332 478
e 332 480
e 332 854
e 333 334
e 333 336
e 333 341
e 333 345
e 333 347
e 333 351
e 333 372
e 333 374
e 333 398
e 333 400
e 333 402
e 333 405
e 333 408
e 333 425
e 333 452
e 333 453
e 333 462
e 333 475
e 333 476
e 333 479
e 334 335
e 334 336
e 334 337
e 334 338
e 334 341
e 334 342
e 334 344
e 334 345
e 334 346
e 334 347
e 334 348
e 334 349
e 334 350
e 334 351
e 334 353
e 334 354
e 334 355
e 334 356
e 334 358
e 334 359
e 334 360
e 334 361
e 334 362
e 334 363
e 334 365
e 334 366
e 334 367
e 334 368
e 334 370
e 334 372
e 334 373
e 334 374
e 334 375
e 334 376
e 334 377
e 334 380
e 334 381
e 334 382
e 334 385
e 334 386
e 334 387
e 334 388
e 334 389
e 334 390
e 334 391
e 334 392
e 334 393
e 334 394
e 334 395
e 334 396
e 334 398
e 334 399
e 334 400
e 334 401
e 334 402
e 334 403
e 334 404
e 334 405
e 334 407
e 334 408
e 334 409
e 334 410
e 334 411
e 334 413
e 334 414
e 334 415
e 334 416
e 334 417
e 334 418
e 334 419
e 334 420
e 334 421
e 334 422
e 334 424
e 334 425
e 334 428
e 334 429
e 334 430
e 334 431
e 334 432
e 334 433
e 334 434
e 334 435
e 334 436
e 334 437
e 334 438
e 334 439
e 334 440
e 334 443
e 334 445
e 334 446
e 334 447
e 334 448
e 334 449
e 334 450
e 334 451
e 334 452
e 334 453
e 334 455
e 334 456
e 334 457
e 334 458
e 334 459
e 334 460
e 334 461
e 334 462
e 334 463
e 334 464
e 334 465
e 334 467
e 334 468
e 334 470
e 334 472
e 334 473
e 334 474
e 334 475
e 334 476
e 334 477
e 334 478
e 334 479
e 334 480
e 334 854
e 335 336
e 335 338
e 335 342
e 335 344
e 335 345
e 335 346
e 335 347
e 335 352
e 335 354
e 335 356
e 335 358
e 335 362
e 335 368
e 335 371
e 335 372
e 335 377
e 335 379
e 335 380
e 335 384
e 335 388
e 335 389
e 335 390
e 335 395
e 335 396
e 335 397
e 335 401
e 335 409
e 335 410
e 335 411
e 335 420
e 335 422
e 335 424
e 335 437
e 335 438
e 335 445
e 335 446
e 335 447
e 335 449
e 335 453
e 335 454
e 335 455
e 335 456
e 335 457
e 335 458
e 335 460
e 335 466
e 335 470
e 335 471
e 335 474
e 335 478
e 335 480
e 336 338
e 336 341
e 336 344
e 336 345
e 336 347
e 336 350
e 336 351
e 336 356
e 336 358
e 336 362
e 336 365
e 336 367
e 336 368
e 336 371
e 336 372
e 336 374
e 336 375
e 336 377
e 336 379
e 336 381
e 336 382
e 336 385
e 336 392
e 336 394
e 336 395
e 336 396
e 336 397
e 336 398
e 336 400
e 336 402
e 336 403
e 336 405
e 336 408
e 336 425
e 336 428
e 336 433
e 336 435
e 336 452
e 336 453
e 336 455
e 336 456
e 336 458
e 336 459
e 336 460
e 336 462
e 336 466
e 336 468
e 336 475
e 336 476
e 336 477
e 336 479
e 337 338
e 337 356
e 337 366
e 337 367
e 337 386
e 337 395
e 337 407
e 337 417
e 337 421
e 337 432
e 337 442
e 337 456
e 337 469
e 337 471
e 337 472
e 338 339
e 338 342
e 338 344
e 338 347
e 338 348
e 338 350
e 338 351
e 338 352
e 338 355
e 338 356
e 338 358
e 338 359
e 338 361
e 338 365
e 338 366
e 338 367
e 338 368
e 338 369
e 338 370
e 338 371
e 338 372
e 338 374
e 338 375
e 338 377
e 338 379
e 338 380
e 338 381
e 338 382
e 338 384
e 338 385
e 338 386
e 338 387
e 338 388
e 338 391
e 338 392
e 338 393
e 338 394
e 338 395
e 338 397
e 338 398
e 338 400
e 338 406
e 338 407
e 338 415
e 338 417
e 338 418
e 338 420
e 338 421
e 338 422
e 338 423
e 338 424
e 338 426
e 338 427
e 338 428
e 338 431
e 338 432
e 338 433
e 338 434
e 338 435
e 338 436
e 338 437
e 338 438
e 338 440
e 338 442
e 338 443
e 338 444
e 338 447
e 338 448
e 338 450
e 338 452
e 338 454
e 338 455
e 338 456
e 338 457
e 338 458
e 338 459
e 338 462
e 338 464
e 338 466
e 338 468
e 338 469
e 338 470
e 338 471
e 338 472
e 338 473
e 338 477
e 338 478
e 338 483
e 338 484
e 338 487
e 338 489
e 338 493
e 338 495
e 338 499
e 338 500
e 338 501
e 338 502
e 338 505
e 338 506
e 338 508
e 338 509
e 338 510
e 338 512
e 338 513
e 338 514
e 338 515
e 338 516
e 338 520
e 338 522
e 338 529
e 338 535
e 338 538
e 338 543
e 338 548
e 338 549
e 338 550
e 338 551
e 338 552
e 338 554
e 338 556
e 338 569
e 338 570
e 338 578
e 338 579
e 338 582
e 338 583
e 338 584
e 338 586
e 338 588
e 338 589
e 338 595
e 338 600
e 338 606
e 338 610
e 338 611
e 338 613
e 338 615
e 338 616
e 338 623
e 338 624
e 338 625
e 338 627
e 338 628
e 338 638
e 338 641
e 338 642
e 338 645
e 338 646
e 338 647
e 338 648
e 338 652
e 338 654
e 338 657
e 338 658
e 338 661
e 338 667
e 338 668
e 338 672
e 338 677
e 338 679
e 338 681
e 338 682
e 338 683
e 338 684
e 338 686
e 338 687
e 338 688
e 338 689
e 338 695
e 338 697
e 338 698
e 338 699
e 338 700
e 338 703
e 338 704
e 338 707
e 338 709
e 338 713
e 338 716
e 338 727
e 338 730
e 338 731
e 338 732
e 338 733
e 338 737
e 338 738
e 338 739
e 338 740
e 338 741
e 338 742
e 338 744
e 338 747
e 338 748
e 338 751
e 338 752
e 338 753
e 338 754
e 338 756
e 338 757
e 338 759
e 338 764
e 338 766
e 338 767
e 338 768
e 338 769
e 338 772
e 338 773
e 338 775
e 338 776
e 338 777
e 338 778
e 338 781
e 338 782
e 338 794
e 338 796
e 338 799
e 338 801
e 338 802
e 338 803
e 338 806
e 338 809
e 338 811
e 338 812
e 338 813
e 338 814
e 338 815
e 338 816
e 338 818
e 338 821
e 338 823
e 338 824
e 338 825
e 338 826
e 338 828
e 338 830
e 338 831
e 338 833
e 338 835
e 338 837
e 338 840
e 338 841
e 338 842
e 338 843
e 339 343
e 339 346
e 339 347
e 339 348
e 339 350
e 339 356
e 339 358
e 339 359
e 339 368
e 339 369
e 339 377
e 339 380
e 339 386
e 339 393
e 339 395
e 339 413
e 339 417
e 339 418
e 339 422
e 339 430
e 339 432
e 339 443
e 339 448
e 339 453
e 339 461
e 339 463
e 339 469
e 339 471
e 339 474
e 339 478
e 339 480
e 340 344
e 340 347
e 340 356
e 340 368
e 340 372
e 340 375
e 340 376
e 340 378
e 340 402
e 340 405
e 340 406
e 340 424
e 340 433
e 340 444
e 340 452
e 340 453
e 340 462
e 340 475
e 340 476
e 340 477
e 340 479
e 341 345
e 341 347
e 341 351
e 341 354
e 341 372
e 341 374
e 341 388
e 341 398
e 341 400
e 341 402
e 341 405
e 341 408
e 341 414
e 341 425
e 341 452
e 341 453
e 341 462
e 341 475
e 341 476
e 341 479
e 342 344
e 342 345
e 342 346
e 342 347
e 342 349
e 342 354
e 342 356
e 342 358
e 342 364
e 342 366
e 342 367
e 342 368
e 342 369
e 342 370
e 342 372
e 342 379
e 342 380
e 342 384
e 342 388
e 342 389
e 342 390
e 342 394
e 342 400
e 342 401
e 342 415
e 342 417
e 342 418
e 342 424
e 342 428
e 342 429
e 342 431
e 342 435
e 342 438
e 342 440
e 342 441
e 342 447
e 342 449
e 342 451
e 342 452
e 342 453
e 342 454
e 342 455
e 342 456
e 342 457
e 342 458
e 342 460
e 342 463
e 342 464
e 342 466
e 342 468
e 342 472
e 342 474
e 342 478
e 342 480
e 342 854
e 343 346
e 343 347
e 343 356
e 343 367
e 343 369
e 343 373
e 343 380
e 343 395
e 343 400
e 343 404
e 343 413
e 343 417
e 343 418
e 343 422
e 343 430
e 343 437
e 343 442
e 343 450
e 343 453
e 343 463
e 343 469
e 343 471
e 343 474
e 343 478
e 343 480
e 344 346
e 344 347
e 344 351
e 344 352
e 344 356
e 344 358
e 344 363
e 344 367
e 344 368
e 344 369
e 344 370
e 344 372
e 344 374
e 344 375
e 344 376
e 344 377
e 344 378
e 344 380
e 344 384
e 344 388
e 344 389
e 344 390
e 344 392
e 344 394
e 344 395
e 344 397
e 344 398
e 344 399
e 344 400
e 344 402
e 344 405
e 344 413
e 344 414
e 344 415
e 344 416
e 344 419
e 344 420
e 344 423
e 344 425
e 344 429
e 344 433
e 344 435
e 344 436
e 344 439
e 344 447
e 344 450
e 344 452
e 344 453
e 344 454
e 344 456
e 344 457
e 344 458
e 344 462
e 344 466
e 344 468
e 344 470
e 344 471
e 344 473
e 344 474
e 344 475
e 344 476
e 344 477
e 344 478
e 344 479
e 344 480
e 344 854
e 345 347
e 345 351
e 345 352
e 345 353
e 345 354
e 345 367
e 345 372
e 345 373
e 345 374
e 345 380
e 345 388
e 345 389
e 345 390
e 345 395
e 345 398
e 345 400
e 345 402
e 345 405
e 345 408
e 345 409
e 345 410
e 345 411
e 345 414
e 345 417
e 345 420
e 345 422
e 345 424
e 345 425
e 345 430
e 345 435
e 345 437
e 345 442
e 345 445
e 345 446
e 345 450
e 345 452
e 345 453
e 345 456
e 345 457
e 345 460
e 345 462
e 345 463
e 345 470
e 345 474
e 345 475
e 345 476
e 345 479
e 346 347
e 346 351
e 346 353
e 346 354
e 346 358
e 346 360
e 346 361
e 346 368
e 346 369
e 346 372
e 346 373
e 346 374
e 346 376
e 346 379
e 346 380
e 346 384
e 346 388
e 346 389
e 346 390
e 346 394
e 346 398
e 346 400
e 346 401
e 346 402
e 346 404
e 346 405
e 346 408
e 346 413
e 346 417
e 346 419
e 346 420
e 346 422
e 346 426
e 346 430
e 346 436
e 346 437
e 346 438
e 346 448
e 346 449
e 346 453
e 346 454
e 346 456
e 346 458
e 346 459
e 346 460
e 346 462
e 346 463
e 346 464
e 346 465
e 346 466
e 346 467
e 346 468
e 346 469
e 346 470
e 346 471
e 346 474
e 346 475
e 346 476
e 346 478
e 346 480
e 346 483
e 346 484
e 346 485
e 346 488
e 346 489
e 346 493
e 346 494
e 346 501
e 346 502
e 346 504
e 346 505
e 346 508
e 346 509
e 346 510
e 346 516
e 346 520
e 346 522
e 346 526
e 346 527
e 346 528
e 346 529
e 346 531
e 346 535
e 346 538
e 346 548
e 346 549
e 346 550
e 346 551
e 346 552
e 346 569
e 346 570
e 346 577
e 346 578
e 346 585
e 346 587
e 346 588
e 346 589
e 346 595
e 346 596
e 346 603
e 346 607
e 346 610
e 346 612
e 346 613
e 346 614
e 346 615
e 346 616
e 346 618
e 346 621
e 346 623
e 346 627
e 346 629
e 346 641
e 346 642
e 346 647
e 346 650
e 346 654
e 346 656
e 346 657
e 346 661
e 346 665
e 346 670
e 346 672
e 346 673
e 346 675
e 346 676
e 346 682
e 346 685
e 346 686
e 346 687
e 346 692
e 346 693
e 346 695
e 346 701
e 346 704
e 346 705
e 346 706
e 346 708
e 346 709
e 346 711
e 346 716
e 346 718
e 346 721
e 346 725
e 346 726
e 346 732
e 346 735
e 346 736
e 346 739
e 346 740
e 346 741
e 346 742
e 346 744
e 346 745
e 346 748
e 346 751
e 346 755
e 346 759
e 346 760
e 346 765
e 346 766
e 346 769
e 346 771
e 346 772
e 346 774
e 346 775
e 346 778
e 346 779
e 346 780
e 346 785
e 346 786
e 346 788
e 346 789
e 346 790
e 346 799
e 346 803
e 346 808
e 346 810
e 346 815
e 346 816
e 346 822
e 346 823
e 346 827
e 346 830
e 346 831
e 346 833
e 346 834
e 346 835
e 346 836
e 346 837
e 346 838
e 346 839
e 346 840
e 346 842
e 346 844
e 346 845
e 346 846
e 346 848
e 346 851
e 346 853
e 346 855
e 347 351
e 347 354
e 347 356
e 347 357
e 347 358
e 347 360
e 347 363
e 347 365
e 347 368
e 347 369
e 347 372
e 347 373
e 347 374
e 347 375
e 347 376
e 347 378
e 347 380
e 347 383
e 347 385
e 347 389
e 347 390
e 347 392
e 347 394
e 347 395
e 347 396
e 347 398
e 347 399
e 347 400
e 347 401
e 347 402
e 347 403
e 347 404
e 347 405
e 347 406
e 347 408
e 347 412
e 347 413
e 347 415
e 347 416
e 347 417
e 347 420
e 347 421
e 347 422
e 347 423
e 347 424
e 347 425
e 347 426
e 347 428
e 347 429
e 347 430
e 347 432
e 347 433
e 347 436
e 347 437
e 347 439
e 347 441
e 347 443
e 347 444
e 347 445
e 347 446
e 347 449
e 347 452
e 347 453
e 347 456
e 347 457
e 347 458
e 347 461
e 347 462
e 347 463
e 347 464
e 347 465
e 347 466
e 347 467
e 347 469
e 347 471
e 347 472
e 347 473
e 347 474
e 347 475
e 347 476
e 347 477
e 347 478
e 347 479
e 347 480
e 347 854
e 348 349
e 348 350
e 348 358
e 348 359
e 348 367
e 348 368
e 348 377
e 348 380
e 348 386
e 348 393
e 348 395
e 348 418
e 348 420
e 348 422
e 348 430
e 348 432
e 348 443
e 348 448
e 348 469
e 349 356
e 349 366
e 349 367
e 349 372
e 349 380
e 349 382
e 349 387
e 349 391
e 349 392
e 349 395
e 349 415
e 349 420
e 349 429
e 349 430
e 349 432
e 349 440
e 349 443
e 349 449
e 349 451
e 349 453
e 349 456
e 349 457
e 349 461
e 349 468
e 349 854
e 350 358
e 350 359
e 350 365
e 350 367
e 350 368
e 350 371
e 350 372
e 350 381
e 350 385
e 350 387
e 350 391
e 350 393
e 350 394
e 350 395
e 350 397
e 350 403
e 350 422
e 350 448
e 350 464
e 351 353
e 351 354
e 351 356
e 351 365
e 351 366
e 351 368
e 351 372
e 351 374
e 351 375
e 351 385
e 351 388
e 351 389
e 351 392
e 351 393
e 351 394
e 351 395
e 351 396
e 351 398
e 351 400
e 351 402
e 351 405
e 351 408
e 351 425
e 351 426
e 351 428
e 351 433
e 351 452
e 351 453
e 351 454
e 351 456
e 351 462
e 351 466
e 351 474
e 351 475
e 351 476
e 351 477
e 351 479
e 351 484
e 351 489
e 351 493
e 351 504
e 351 508
e 351 509
e 351 510
e 351 514
e 351 516
e 351 526
e 351 531
e 351 535
e 351 538
e 351 549
e 351 550
e 351 552
e 351 569
e 351 578
e 351 588
e 351 595
e 351 598
e 351 599
e 351 606
e 351 615
e 351 616
e 351 623
e 351 624
e 351 641
e 351 645
e 351 646
e 351 647
e 351 648
e 351 657
e 351 661
e 351 676
e 351 679
e 351 699
e 351 713
e 351 717
e 351 726
e 351 741
e 351 742
e 351 745
e 351 751
e 351 754
e 351 757
e 351 769
e 351 775
e 351 778
e 351 779
e 351 780
e 351 785
e 351 799
e 351 800
e 351 802
e 351 813
e 351 816
e 351 821
e 351 824
e 351 828
e 351 829
e 351 830
e 351 831
e 351 832
e 351 835
e 351 836
e 351 837
e 351 841
e 351 842
e 351 848
e 351 850
e 351 851
e 351 852
e 351 855
e 352 367
e 352 373
e 352 380
e 352 384
e 352 388
e 352 395
e 352 400
e 352 417
e 352 420
e 352 424
e 352 430
e 352 437
e 352 442
e 352 447
e 352 450
e 352 452
e 352 454
e 352 460
e 352 463
e 352 466
e 352 470
e 353 354
e 353 360
e 353 361
e 353 374
e 353 376
e 353 388
e 353 389
e 353 402
e 353 405
e 353 408
e 353 414
e 353 417
e 353 419
e 353 452
e 353 453
e 353 462
e 353 475
e 353 476
e 354 358
e 354 359
e 354 360
e 354 361
e 354 364
e 354 368
e 354 372
e 354 373
e 354 374
e 354 376
e 354 380
e 354 383
e 354 385
e 354 388
e 354 390
e 354 394
e 354 398
e 354 400
e 354 402
e 354 403
e 354 408
e 354 409
e 354 410
e 354 411
e 354 414
e 354 417
e 354 419
e 354 420
e 354 422
e 354 424
e 354 425
e 354 426
e 354 429
e 354 431
e 354 437
e 354 441
e 354 444
e 354 445
e 354 446
e 354 448
e 354 449
e 354 451
e 354 453
e 354 456
e 354 457
e 354 458
e 354 459
e 354 461
e 354 462
e 354 464
e 354 465
e 354 470
e 354 474
e 354 475
e 354 483
e 354 485
e 354 488
e 354 489
e 354 493
e 354 494
e 354 497
e 354 499
e 354 501
e 354 502
e 354 504
e 354 505
e 354 509
e 354 510
e 354 513
e 354 514
e 354 515
e 354 516
e 354 520
e 354 522
e 354 524
e 354 526
e 354 527
e 354 528
e 354 531
e 354 534
e 354 535
e 354 538
e 354 543
e 354 544
e 354 545
e 354 546
e 354 547
e 354 548
e 354 549
e 354 550
e 354 551
e 354 552
e 354 556
e 354 569
e 354 570
e 354 571
e 354 572
e 354 573
e 354 574
e 354 575
e 354 577
e 354 578
e 354 586
e 354 587
e 354 588
e 354 589
e 354 595
e 354 596
e 354 598
e 354 599
e 354 603
e 354 606
e 354 607
e 354 613
e 354 615
e 354 616
e 354 617
e 354 619
e 354 620
e 354 622
e 354 623
e 354 624
e 354 626
e 354 627
e 354 628
e 354 629
e 354 630
e 354 633
e 354 642
e 354 647
e 354 650
e 354 651
e 354 654
e 354 656
e 354 657
e 354 661
e 354 662
e 354 665
e 354 667
e 354 668
e 354 669
e 354 672
e 354 674
e 354 675
e 354 676
e 354 679
e 354 686
e 354 687
e 354 688
e 354 692
e 354 694
e 354 697
e 354 699
e 354 701
e 354 704
e 354 705
e 354 706
e 354 707
e 354 715
e 354 716
e 354 721
e 354 722
e 354 724
e 354 725
e 354 726
e 354 735
e 354 736
e 354 739
e 354 741
e 354 742
e 354 744
e 354 745
e 354 750
e 354 755
e 354 757
e 354 760
e 354 763
e 354 765
e 354 766
e 354 767
e 354 769
e 354 770
e 354 772
e 354 774
e 354 775
e 354 778
e 354 779
e 354 780
e 354 782
e 354 783
e 354 786
e 354 787
e 354 790
e 354 791
e 354 792
e 354 793
e 354 796
e 354 797
e 354 799
e 354 802
e 354 803
e 354 804
e 354 806
e 354 807
e 354 808
e 354 809
e 354 816
e 354 817
e 354 819
e 354 820
e 354 821
e 354 822
e 354 823
e 354 824
e 354 827
e 354 828
e 354 829
e 354 830
e 354 831
e 354 832
e 354 833
e 354 834
e 354 835
e 354 836
e 354 837
e 354 839
e 354 841
e 354 842
e 354 844
e 354 845
e 354 847
e 354 848
e 354 850
e 354 852
e 354 854
e 355 356
e 355 363
e 355 364
e 355 368
e 355 376
e 355 385
e 355 394
e 355 398
e 355 399
e 355 406
e 355 414
e 355 417
e 355 423
e 355 424
e 355 425
e 355 429
e 355 431
e 355 440
e 355 441
e 355 444
e 355 466
e 356 359
e 356 362
e 356 364
e 356 365
e 356 366
e 356 367
e 356 368
e 356 369
e 356 370
e 356 371
e 356 372
e 356 373
e 356 374
e 356 375
e 356 376
e 356 377
e 356 378
e 356 380
e 356 382
e 356 384
e 356 385
e 356 386
e 356 387
e 356 388
e 356 389
e 356 391
e 356 392
e 356 393
e 356 394
e 356 395
e 356 396
e 356 397
e 356 398
e 356 400
e 356 404
e 356 406
e 356 407
e 356 413
e 356 414
e 356 415
e 356 416
e 356 417
e 356 418
e 356 420
e 356 421
e 356 422
e 356 423
e 356 424
e 356 428
e 356 429
e 356 430
e 356 431
e 356 432
e 356 433
e 356 434
e 356 435
e 356 437
e 356 439
e 356 440
e 356 441
e 356 442
e 356 443
e 356 444
e 356 447
e 356 448
e 356 449
e 356 450
e 356 451
e 356 452
e 356 453
e 356 454
e 356 455
e 356 456
e 356 457
e 356 458
e 356 459
e 356 460
e 356 461
e 356 462
e 356 463
e 356 464
e 356 465
e 356 466
e 356 468
e 356 471
e 356 472
e 356 473
e 356 854
e 357 372
e 357 376
e 357 378
e 357 380
e 357 383
e 357 390
e 357 400
e 357 412
e 357 426
e 357 437
e 357 444
e 357 467
e 357 469
e 357 472
e 357 479
e 357 480
e 358 359
e 358 366
e 358 368
e 358 371
e 358 372
e 358 376
e 358 379
e 358 380
e 358 382
e 358 388
e 358 389
e 358 392
e 358 393
e 358 394
e 358 395
e 358 396
e 358 397
e 358 401
e 358 414
e 358 415
e 358 416
e 358 419
e 358 420
e 358 422
e 358 427
e 358 433
e 358 435
e 358 438
e 358 443
e 358 448
e 358 449
e 358 452
e 358 453
e 358 454
e 358 456
e 358 458
e 358 459
e 358 461
e 358 462
e 358 465
e 358 466
e 358 468
e 358 473
e 358 478
e 358 480
e 358 483
e 358 484
e 358 489
e 358 493
e 358 499
e 358 504
e 358 515
e 358 529
e 358 531
e 358 535
e 358 538
e 358 543
e 358 548
e 358 549
e 358 550
e 358 551
e 358 552
e 358 569
e 358 570
e 358 576
e 358 595
e 358 627
e 358 642
e 358 647
e 358 651
e 358 663
e 358 667
e 358 668
e 358 675
e 358 679
e 358 686
e 358 688
e 358 695
e 358 712
e 358 716
e 358 717
e 358 731
e 358 741
e 358 742
e 358 744
e 358 751
e 358 757
e 358 766
e 358 767
e 358 769
e 358 777
e 358 778
e 358 779
e 358 781
e 358 782
e 358 806
e 358 807
e 358 811
e 358 814
e 358 816
e 358 821
e 358 822
e 358 823
e 358 824
e 358 825
e 358 826
e 358 828
e 358 829
e 358 832
e 358 850
e 358 852
e 359 365
e 359 366
e 359 368
e 359 377
e 359 381
e 359 385
e 359 386
e 359 387
e 359 389
e 359 391
e 359 393
e 359 394
e 359 395
e 359 416
e 359 417
e 359 418
e 359 422
e 359 428
e 359 432
e 359 443
e 359 453
e 359 464
e 359 469
e 359 483
e 359 485
e 359 493
e 359 504
e 359 505
e 359 509
e 359 513
e 359 529
e 359 531
e 359 538
e 359 548
e 359 549
e 359 550
e 359 551
e 359 552
e 359 569
e 359 570
e 359 576
e 359 627
e 359 628
e 359 642
e 359 647
e 359 663
e 359 667
e 359 675
e 359 688
e 359 694
e 359 695
e 359 697
e 359 699
e 359 712
e 359 716
e 359 717
e 359 731
e 359 741
e 359 742
e 359 744
e 359 757
e 359 769
e 359 777
e 359 781
e 359 782
e 359 807
e 359 808
e 359 811
e 359 822
e 359 824
e 359 826
e 359 829
e 359 832
e 359 848
e 359 850
e 360 361
e 360 368
e 360 372
e 360 381
e 360 388
e 360 394
e 360 403
e 360 408
e 360 417
e 360 420
e 360 422
e 360 434
e 360 445
e 360 446
e 360 448
e 360 451
e 360 453
e 360 456
e 360 457
e 360 458
e 360 459
e 360 461
e 360 465
e 360 475
e 360 854
e 361 372
e 361 376
e 361 380
e 361 383
e 361 388
e 361 408
e 361 417
e 361 419
e 361 420
e 361 437
e 361 444
e 361 448
e 361 449
e 361 453
e 361 459
e 361 464
e 361 465
e 361 474
e 361 475
e 361 478
e 361 483
e 361 493
e 361 497
e 361 501
e 361 508
e 361 526
e 361 529
e 361 530
e 361 531
e 361 532
e 361 548
e 361 550
e 361 557
e 361 565
e 361 569
e 361 570
e 361 600
e 361 605
e 361 622
e 361 629
e 361 635
e 361 638
e 361 672
e 361 673
e 361 674
e 361 678
e 361 679
e 361 681
e 361 682
e 361 683
e 361 684
e 361 687
e 361 689
e 361 693
e 361 701
e 361 703
e 361 704
e 361 707
e 361 722
e 361 733
e 361 741
e 361 744
e 361 747
e 361 752
e 361 757
e 361 770
e 361 796
e 361 799
e 361 811
e 361 815
e 361 818
e 361 833
e 361 837
e 361 840
e 361 842
e 361 843
e 361 850
e 361 853
e 362 371
e 362 372
e 362 377
e 362 395
e 362 396
e 362 397
e 362 434
e 362 455
e 362 460
e 363 368
e 363 376
e 363 378
e 363 380
e 363 399
e 363 405
e 363 406
e 363 423
e 363 424
e 363 425
e 363 429
e 363 431
e 363 439
e 363 452
e 363 453
e 363 457
e 363 462
e 363 475
e 363 476
e 363 477
e 363 479
e 364 366
e 364 368
e 364 372
e 364 376
e 364 383
e 364 385
e 364 388
e 364 393
e 364 394
e 364 400
e 364 414
e 364 417
e 364 419
e 364 429
e 364 431
e 364 440
e 364 441
e 364 444
e 364 447
e 364 457
e 364 471
e 364 478
e 364 481
e 364 482
e 364 483
e 364 484
e 364 485
e 364 493
e 364 501
e 364 502
e 364 508
e 364 509
e 364 513
e 364 518
e 364 522
e 364 526
e 364 529
e 364 531
e 364 534
e 364 535
e 364 538
e 364 543
e 364 548
e 364 551
e 364 552
e 364 556
e 364 560
e 364 561
e 364 562
e 364 564
e 364 569
e 364 570
e 364 578
e 364 580
e 364 581
e 364 586
e 364 588
e 364 595
e 364 606
e 364 607
e 364 613
e 364 627
e 364 628
e 364 629
e 364 630
e 364 631
e 364 633
e 364 635
e 364 636
e 364 641
e 364 642
e 364 647
e 364 653
e 364 654
e 364 657
e 364 658
e 364 661
e 364 663
e 364 666
e 364 669
e 364 670
e 364 671
e 364 672
e 364 673
e 364 674
e 364 676
e 364 690
e 364 691
e 364 694
e 364 696
e 364 697
e 364 698
e 364 699
e 364 700
e 364 703
e 364 704
e 364 707
e 364 709
e 364 710
e 364 712
e 364 721
e 364 730
e 364 732
e 364 734
e 364 740
e 364 741
e 364 742
e 364 744
e 364 745
e 364 747
e 364 748
e 364 749
e 364 751
e 364 752
e 364 753
e 364 754
e 364 757
e 364 759
e 364 769
e 364 770
e 364 771
e 364 773
e 364 774
e 364 777
e 364 780
e 364 782
e 364 788
e 364 796
e 364 797
e 364 798
e 364 799
e 364 801
e 364 803
e 364 807
e 364 808
e 364 810
e 364 811
e 364 817
e 364 818
e 364 821
e 364 824
e 364 825
e 364 833
e 364 834
e 364 837
e 364 844
e 364 847
e 364 849
e 364 850
e 364 852
e 365 367
e 365 368
e 365 371
e 365 372
e 365 374
e 365 381
e 365 385
e 365 387
e 365 389
e 365 391
e 365 392
e 365 393
e 365 394
e 365 395
e 365 397
e 365 403
e 365 416
e 365 419
e 365 428
e 365 433
e 365 466
e 366 367
e 366 372
e 366 382
e 366 387
e 366 391
e 366 392
e 366 394
e 366 395
e 366 415
e 366 417
e 366 421
e 366 426
e 366 429
e 366 432
e 366 440
e 366 441
e 366 447
e 366 449
e 366 451
e 366 453
e 366 454
e 366 456
e 366 457
e 366 461
e 366 468
e 366 481
e 366 482
e 366 483
e 366 484
e 366 485
e 366 493
e 366 504
e 366 513
e 366 516
e 366 518
e 366 529
e 366 531
e 366 535
e 366 538
e 366 543
e 366 548
e 366 549
e 366 550
e 366 551
e 366 552
e 366 560
e 366 561
e 366 562
e 366 564
e 366 569
e 366 570
e 366 576
e 366 578
e 366 580
e 366 581
e 366 595
e 366 606
e 366 615
e 366 616
e 366 623
e 366 627
e 366 629
e 366 631
e 366 642
e 366 645
e 366 646
e 366 647
e 366 648
e 366 657
e 366 663
e 366 666
e 366 672
e 366 673
e 366 675
e 366 676
e 366 679
e 366 688
e 366 694
e 366 695
e 366 696
e 366 697
e 366 699
e 366 703
e 366 709
e 366 710
e 366 712
e 366 713
e 366 716
e 366 717
e 366 730
e 366 731
e 366 741
e 366 742
e 366 744
e 366 747
e 366 751
e 366 752
e 366 754
e 366 757
e 366 769
e 366 770
e 366 777
e 366 778
e 366 781
e 366 782
e 366 796
e 366 799
e 366 802
e 366 807
e 366 811
e 366 817
e 366 821
e 366 822
e 366 824
e 366 826
e 366 829
e 366 832
e 366 837
e 366 841
e 366 850
e 366 854
e 367 369
e 367 370
e 367 371
e 367 372
e 367 373
e 367 380
e 367 381
e 367 385
e 367 388
e 367 395
e 367 397
e 367 400
e 367 403
e 367 404
e 367 407
e 367 413
e 367 417
e 367 418
e 367 420
e 367 421
e 367 422
e 367 424
e 367 428
e 367 430
e 367 432
e 367 433
e 367 434
e 367 435
e 367 437
e 367 439
e 367 442
e 367 443
e 367 447
e 367 450
e 367 452
e 367 454
e 367 455
e 367 460
e 367 462
e 367 463
e 367 468
e 367 470
e 367 473
e 367 854
e 368 372
e 368 374
e 368 375
e 368 376
e 368 378
e 368 380
e 368 381
e 368 385
e 368 386
e 368 387
e 368 389
e 368 390
e 368 391
e 368 392
e 368 393
e 368 394
e 368 395
e 368 396
e 368 397
e 368 398
e 368 399
e 368 400
e 368 401
e 368 402
e 368 403
e 368 405
e 368 414
e 368 415
e 368 416
e 368 417
e 368 419
e 368 420
e 368 421
e 368 422
e 368 423
e 368 425
e 368 428
e 368 429
e 368 431
e 368 433
e 368 435
e 368 439
e 368 440
e 368 441
e 368 443
e 368 445
e 368 446
e 368 448
e 368 449
e 368 452
e 368 453
e 368 456
e 368 457
e 368 458
e 368 461
e 368 462
e 368 464
e 368 465
e 368 466
e 368 469
e 368 470
e 368 473
e 368 475
e 368 476
e 368 477
e 368 478
e 368 479
e 368 480
e 368 484
e 368 501
e 368 502
e 368 516
e 368 552
e 368 612
e 368 614
e 368 615
e 368 616
e 368 618
e 368 621
e 368 623
e 368 627
e 368 686
e 368 687
e 368 740
e 368 744
e 368 755
e 368 774
e 368 790
e 368 799
e 368 854
e 369 370
e 369 372
e 369 380
e 369 388
e 369 389
e 369 413
e 369 422
e 369 428
e 369 430
e 369 435
e 369 438
e 369 447
e 369 452
e 369 453
e 369 454
e 369 455
e 369 457
e 369 463
e 369 469
e 369 471
e 369 474
e 369 478
e 369 480
e 370 372
e 370 386
e 370 388
e 370 389
e 370 418
e 370 428
e 370 435
e 370 436
e 370 438
e 370 440
e 370 447
e 370 450
e 370 452
e 370 454
e 370 455
e 370 456
e 370 457
e 370 472
e 370 477
e 371 372
e 371 377
e 371 379
e 371 381
e 371 382
e 371 385
e 371 392
e 371 394
e 371 395
e 371 396
e 371 397
e 371 403
e 371 433
e 371 435
e 371 455
e 371 456
e 371 459
e 371 460
e 371 466
e 371 468
e 372 373
e 372 374
e 372 375
e 372 376
e 372 377
e 372 378
e 372 379
e 372 380
e 372 381
e 372 382
e 372 383
e 372 384
e 372 385
e 372 386
e 372 387
e 372 388
e 372 389
e 372 390
e 372 391
e 372 392
e 372 394
e 372 395
e 372 396
e 372 397
e 372 398
e 372 400
e 372 401
e 372 402
e 372 403
e 372 404
e 372 405
e 372 406
e 372 408
e 372 412
e 372 417
e 372 418
e 372 419
e 372 420
e 372 424
e 372 425
e 372 426
e 372 428
e 372 429
e 372 431
e 372 432
e 372 433
e 372 434
e 372 435
e 372 436
e 372 437
e 372 438
e 372 440
e 372 441
e 372 444
e 372 447
e 372 448
e 372 449
e 372 450
e 372 451
e 372 452
e 372 453
e 372 454
e 372 455
e 372 456
e 372 457
e 372 458
e 372 459
e 372 460
e 372 461
e 372 462
e 372 463
e 372 464
e 372 465
e 372 466
e 372 467
e 372 468
e 372 471
e 372 472
e 372 474
e 372 475
e 372 476
e 372 477
e 372 478
e 372 479
e 372 480
e 372 484
e 372 487
e 372 500
e 372 501
e 372 502
e 372 506
e 372 507
e 372 508
e 372 509
e 372 510
e 372 512
e 372 513
e 372 514
e 372 522
e 372 525
e 372 526
e 372 535
e 372 541
e 372 543
e 372 548
e 372 549
e 372 551
e 372 552
e 372 556
e 372 558
e 372 561
e 372 563
e 372 564
e 372 570
e 372 578
e 372 586
e 372 588
e 372 595
e 372 613
e 372 616
e 372 624
e 372 628
e 372 629
e 372 630
e 372 631
e 372 632
e 372 633
e 372 642
e 372 647
e 372 654
e 372 660
e 372 670
e 372 671
e 372 672
e 372 676
e 372 687
e 372 691
e 372 695
e 372 700
e 372 704
e 372 707
e 372 709
e 372 718
e 372 720
e 372 721
e 372 722
e 372 729
e 372 741
e 372 742
e 372 751
e 372 756
e 372 757
e 372 762
e 372 770
e 372 774
e 372 784
e 372 789
e 372 796
e 372 797
e 372 799
e 372 805
e 372 809
e 372 817
e 372 826
e 372 833
e 372 845
e 372 846
e 372 849
e 372 852
e 372 853
e 372 854
e 373 380
e 373 383
e 373 394
e 373 395
e 373 400
e 373 404
e 373 413
e 373 417
e 373 418
e 373 422
e 373 424
e 373 430
e 373 436
e 373 437
e 373 442
e 373 444
e 373 450
e 373 452
e 373 460
e 373 463
e 373 467
e 373 474
e 373 478
e 373 480
e 373 502
e 373 513
e 373 522
e 373 525
e 373 543
e 373 544
e 373 545
e 373 546
e 373 547
e 373 548
e 373 549
e 373 551
e 373 552
e 373 558
e 373 570
e 373 578
e 373 595
e 373 613
e 373 616
e 373 624
e 373 628
e 373 629
e 373 633
e 373 642
e 373 647
e 373 654
e 373 660
e 373 667
e 373 669
e 373 672
e 373 674
e 373 676
e 373 687
e 373 691
e 373 707
e 373 721
e 373 722
e 373 757
e 373 765
e 373 770
e 373 796
e 373 805
e 373 846
e 373 848
e 374 375
e 374 385
e 374 388
e 374 389
e 374 392
e 374 394
e 374 395
e 374 398
e 374 400
e 374 402
e 374 405
e 374 408
e 374 414
e 374 425
e 374 428
e 374 433
e 374 452
e 374 453
e 374 456
e 374 462
e 374 466
e 374 475
e 374 476
e 374 477
e 374 479
e 375 376
e 375 378
e 375 392
e 375 393
e 375 394
e 375 395
e 375 397
e 375 398
e 375 400
e 375 402
e 375 405
e 375 406
e 375 424
e 375 425
e 375 433
e 375 435
e 375 437
e 375 443
e 375 444
e 375 452
e 375 453
e 375 456
e 375 458
e 375 462
e 375 466
e 375 470
e 375 475
e 375 476
e 375 477
e 375 478
e 375 479
e 375 484
e 375 487
e 375 493
e 375 495
e 375 496
e 375 497
e 375 498
e 375 499
e 375 501
e 375 503
e 375 504
e 375 505
e 375 507
e 375 509
e 375 511
e 375 513
e 375 514
e 375 515
e 375 516
e 375 517
e 375 519
e 375 520
e 375 526
e 375 535
e 375 536
e 375 537
e 375 538
e 375 539
e 375 543
e 375 548
e 375 549
e 375 550
e 375 551
e 375 552
e 375 554
e 375 569
e 375 570
e 375 588
e 375 589
e 375 590
e 375 591
e 375 595
e 375 596
e 375 602
e 375 608
e 375 609
e 375 610
e 375 613
e 375 615
e 375 616
e 375 625
e 375 627
e 375 641
e 375 642
e 375 644
e 375 647
e 375 661
e 375 664
e 375 674
e 375 679
e 375 680
e 375 687
e 375 701
e 375 702
e 375 704
e 375 705
e 375 708
e 375 714
e 375 716
e 375 724
e 375 740
e 375 741
e 375 742
e 375 744
e 375 757
e 375 764
e 375 769
e 375 772
e 375 777
e 375 778
e 375 779
e 375 781
e 375 782
e 375 794
e 375 796
e 375 804
e 375 806
e 375 812
e 375 833
e 376 378
e 376 380
e 376 383
e 376 390
e 376 394
e 376 399
e 376 405
e 376 406
e 376 408
e 376 409
e 376 410
e 376 411
e 376 412
e 376 414
e 376 415
e 376 417
e 376 419
e 376 422
e 376 423
e 376 424
e 376 425
e 376 426
e 376 429
e 376 431
e 376 437
e 376 439
e 376 441
e 376 444
e 376 445
e 376 446
e 376 451
e 376 453
e 376 467
e 376 468
e 376 470
e 376 473
e 376 479
e 376 480
e 377 382
e 377 384
e 377 386
e 377 392
e 377 395
e 377 396
e 377 397
e 377 413
e 377 416
e 377 417
e 377 418
e 377 420
e 377 422
e 377 429
e 377 432
e 377 434
e 377 443
e 377 447
e 377 448
e 377 450
e 377 451
e 377 453
e 377 455
e 377 456
e 377 457
e 377 459
e 377 460
e 377 461
e 377 462
e 377 464
e 377 465
e 377 468
e 377 469
e 377 473
e 377 477
e 377 854
e 378 380
e 378 383
e 378 390
e 378 399
e 378 405
e 378 406
e 378 412
e 378 423
e 378 424
e 378 426
e 378 429
e 378 433
e 378 439
e 378 444
e 378 452
e 378 453
e 378 457
e 378 462
e 378 467
e 378 475
e 378 476
e 378 477
e 378 479
e 379 380
e 379 382
e 379 384
e 379 389
e 379 390
e 379 392
e 379 394
e 379 395
e 379 401
e 379 433
e 379 435
e 379 438
e 379 454
e 379 456
e 379 457
e 379 459
e 379 460
e 379 466
e 379 468
e 379 471
e 379 474
e 379 478
e 379 480
e 380 383
e 380 384
e 380 388
e 380 389
e 380 390
e 380 395
e 380 396
e 380 397
e 380 399
e 380 400
e 380 401
e 380 404
e 380 406
e 380 412
e 380 413
e 380 414
e 380 415
e 380 416
e 380 417
e 380 419
e 380 420
e 380 421
e 380 422
e 380 423
e 380 424
e 380 426
e 380 428
e 380 429
e 380 430
e 380 433
e 380 434
e 380 435
e 380 436
e 380 437
e 380 438
e 380 439
e 380 442
e 380 443
e 380 444
e 380 448
e 380 449
e 380 450
e 380 452
e 380 453
e 380 454
e 380 455
e 380 456
e 380 457
e 380 458
e 380 459
e 380 460
e 380 461
e 380 462
e 380 463
e 380 464
e 380 465
e 380 466
e 380 467
e 380 468
e 380 469
e 380 470
e 380 471
e 380 472
e 380 473
e 380 474
e 380 475
e 380 476
e 380 477
e 380 478
e 380 479
e 380 480
e 381 385
e 381 387
e 381 391
e 381 393
e 381 394
e 381 395
e 381 397
e 381 403
e 381 420
e 381 434
e 381 448
e 381 451
e 381 453
e 381 457
e 381 459
e 381 461
e 381 464
e 381 465
e 381 854
e 382 387
e 382 391
e 382 392
e 382 394
e 382 395
e 382 417
e 382 419
e 382 429
e 382 432
e 382 433
e 382 435
e 382 448
e 382 451
e 382 453
e 382 456
e 382 457
e 382 459
e 382 461
e 382 462
e 382 466
e 382 468
e 382 854
e 383 390
e 383 394
e 383 400
e 383 412
e 383 417
e 383 426
e 383 437
e 383 444
e 383 448
e 383 467
e 383 469
e 383 471
e 383 472
e 383 476
e 383 478
e 383 479
e 383 480
e 383 493
e 383 497
e 383 501
e 383 502
e 383 507
e 383 508
e 383 509
e 383 510
e 383 513
e 383 515
e 383 520
e 383 522
e 383 524
e 383 525
e 383 526
e 383 531
e 383 534
e 383 535
e 383 538
e 383 543
e 383 548
e 383 549
e 383 550
e 383 551
e 383 552
e 383 553
e 383 554
e 383 555
e 383 556
e 383 557
e 383 558
e 383 565
e 383 570
e 383 578
e 383 586
e 383 588
e 383 589
e 383 595
e 383 601
e 383 604
e 383 607
e 383 613
e 383 615
e 383 616
e 383 622
e 383 624
e 383 625
e 383 626
e 383 627
e 383 628
e 383 629
e 383 630
e 383 633
e 383 635
e 383 638
e 383 639
e 383 642
e 383 647
e 383 654
e 383 655
e 383 657
e 383 660
e 383 669
e 383 670
e 383 671
e 383 672
e 383 673
e 383 674
e 383 676
e 383 678
e 383 679
e 383 687
e 383 691
e 383 695
e 383 700
e 383 701
e 383 704
e 383 707
e 383 718
e 383 720
e 383 721
e 383 722
e 383 725
e 383 729
e 383 735
e 383 741
e 383 742
e 383 744
e 383 746
e 383 749
e 383 751
e 383 752
e 383 757
e 383 758
e 383 769
e 383 770
e 383 772
e 383 773
e 383 774
e 383 780
e 383 786
e 383 789
e 383 795
e 383 796
e 383 797
e 383 804
e 383 805
e 383 807
e 383 810
e 383 812
e 383 824
e 383 831
e 383 833
e 383 837
e 383 838
e 383 840
e 383 842
e 383 843
e 383 845
e 383 846
e 383 849
e 383 850
e 383 852
e 383 853
e 383 855
e 384 388
e 384 389
e 384 390
e 384 396
e 384 401
e 384 417
e 384 420
e 384 434
e 384 438
e 384 447
e 384 448
e 384 451
e 384 453
e 384 454
e 384 455
e 384 456
e 384 457
e 384 459
e 384 460
e 384 461
e 384 464
e 384 465
e 384 466
e 384 470
e 384 471
e 384 474
e 384 478
e 384 480
e 384 854
e 385 387
e 385 389
e 385 391
e 385 392
e 385 393
e 385 394
e 385 395
e 385 397
e 385 398
e 385 400
e 385 403
e 385 406
e 385 416
e 385 419
e 385 423
e 385 424
e 385 426
e 385 428
e 385 431
e 385 433
e 385 437
e 385 444
e 385 466
e 385 474
e 385 493
e 385 499
e 385 502
e 385 505
e 385 509
e 385 516
e 385 520
e 385 522
e 385 526
e 385 529
e 385 535
e 385 548
e 385 550
e 385 551
e 385 569
e 385 570
e 385 588
e 385 592
e 385 595
e 385 597
e 385 606
e 385 610
e 385 613
e 385 615
e 385 616
e 385 627
e 385 637
e 385 642
e 385 647
e 385 653
e 385 654
e 385 657
e 385 661
e 385 662
e 385 667
e 385 672
e 385 675
e 385 676
e 385 679
e 385 687
e 385 699
e 385 701
e 385 702
e 385 704
e 385 705
e 385 708
e 385 715
e 385 716
e 385 718
e 385 720
e 385 721
e 385 725
e 385 729
e 385 734
e 385 735
e 385 741
e 385 743
e 385 744
e 385 745
e 385 746
e 385 750
e 385 754
e 385 755
e 385 769
e 385 770
e 385 771
e 385 772
e 385 778
e 385 779
e 385 780
e 385 782
e 385 783
e 385 786
e 385 789
e 385 790
e 385 791
e 385 792
e 385 793
e 385 799
e 385 802
e 385 803
e 385 804
e 385 808
e 385 814
e 385 818
e 385 819
e 385 820
e 385 824
e 385 825
e 385 826
e 385 831
e 385 833
e 385 834
e 385 839
e 385 841
e 385 845
e 385 846
e 385 847
e 385 849
e 385 852
e 385 853
e 386 389
e 386 390
e 386 394
e 386 395
e 386 396
e 386 407
e 386 417
e 386 418
e 386 421
e 386 422
e 386 432
e 386 436
e 386 438
e 386 440
e 386 442
e 386 443
e 386 450
e 386 455
e 386 456
e 386 462
e 386 464
e 386 465
e 386 469
e 386 471
e 386 472
e 386 473
e 386 477
e 386 854
e 387 389
e 387 391
e 387 392
e 387 393
e 387 394
e 387 395
e 387 416
e 387 417
e 387 419
e 387 428
e 387 429
e 387 432
e 387 433
e 387 441
e 387 457
e 387 461
e 387 464
e 388 389
e 388 397
e 388 400
e 388 402
e 388 405
e 388 408
e 388 414
e 388 415
e 388 417
e 388 419
e 388 420
e 388 425
e 388 428
e 388 429
e 388 431
e 388 433
e 388 434
e 388 435
e 388 437
e 388 438
e 388 441
e 388 443
e 388 447
e 388 448
e 388 449
e 388 452
e 388 453
e 388 454
e 388 455
e 388 456
e 388 457
e 388 458
e 388 459
e 388 462
e 388 464
e 388 465
e 388 466
e 388 470
e 388 473
e 388 475
e 388 476
e 389 390
e 389 391
e 389 393
e 389 394
e 389 396
e 389 400
e 389 402
e 389 405
e 389 408
e 389 414
e 389 415
e 389 416
e 389 417
e 389 420
e 389 421
e 389 424
e 389 428
e 389 438
e 389 447
e 389 452
e 389 453
e 389 454
e 389 455
e 389 456
e 389 457
e 389 460
e 389 462
e 389 463
e 389 464
e 389 465
e 389 466
e 389 469
e 389 471
e 389 472
e 389 473
e 389 474
e 389 475
e 389 476
e 390 394
e 390 396
e 390 400
e 390 409
e 390 410
e 390 411
e 390 412
e 390 416
e 390 417
e 390 420
e 390 421
e 390 422
e 390 423
e 390 424
e 390 426
e 390 429
e 390 436
e 390 437
e 390 444
e 390 445
e 390 446
e 390 450
e 390 452
e 390 453
e 390 456
e 390 457
e 390 460
e 390 462
e 390 463
e 390 464
e 390 465
e 390 466
e 390 467
e 390 469
e 390 470
e 390 471
e 390 472
e 390 473
e 390 474
e 390 477
e 390 478
e 390 479
e 390 480
e 391 392
e 391 393
e 391 394
e 391 395
e 391 398
e 391 400
e 391 416
e 391 419
e 391 425
e 391 428
e 391 429
e 391 432
e 391 433
e 391 457
e 391 461
e 391 464
e 392 394
e 392 395
e 392 397
e 392 417
e 392 428
e 392 429
e 392 432
e 392 433
e 392 435
e 392 448
e 392 451
e 392 452
e 392 453
e 392 456
e 392 457
e 392 458
e 392 459
e 392 461
e 392 462
e 392 466
e 392 468
e 392 854
e 393 394
e 393 395
e 393 396
e 393 398
e 393 400
e 393 416
e 393 419
e 393 422
e 393 425
e 393 426
e 393 427
e 393 428
e 393 433
e 393 443
e 393 447
e 393 448
e 393 452
e 393 453
e 393 454
e 393 457
e 393 464
e 393 470
e 393 478
e 393 480
e 393 484
e 393 487
e 393 488
e 393 489
e 393 490
e 393 491
e 393 492
e 393 494
e 393 495
e 393 496
e 393 499
e 393 502
e 393 504
e 393 507
e 393 508
e 393 513
e 393 514
e 393 515
e 393 516
e 393 520
e 393 521
e 393 522
e 393 523
e 393 529
e 393 531
e 393 533
e 393 535
e 393 536
e 393 537
e 393 538
e 393 539
e 393 543
e 393 548
e 393 549
e 393 550
e 393 551
e 393 552
e 393 555
e 393 566
e 393 567
e 393 568
e 393 569
e 393 570
e 393 578
e 393 586
e 393 588
e 393 595
e 393 596
e 393 606
e 393 609
e 393 611
e 393 613
e 393 615
e 393 616
e 393 624
e 393 626
e 393 627
e 393 628
e 393 631
e 393 640
e 393 641
e 393 642
e 393 643
e 393 644
e 393 647
e 393 654
e 393 658
e 393 659
e 393 661
e 393 664
e 393 666
e 393 667
e 393 668
e 393 677
e 393 679
e 393 680
e 393 686
e 393 687
e 393 688
e 393 691
e 393 697
e 393 701
e 393 703
e 393 704
e 393 707
e 393 709
e 393 710
e 393 717
e 393 719
e 393 723
e 393 724
e 393 725
e 393 727
e 393 728
e 393 730
e 393 732
e 393 735
e 393 738
e 393 739
e 393 740
e 393 741
e 393 742
e 393 744
e 393 745
e 393 748
e 393 751
e 393 753
e 393 756
e 393 757
e 393 759
e 393 761
e 393 762
e 393 764
e 393 766
e 393 767
e 393 768
e 393 769
e 393 774
e 393 776
e 393 777
e 393 778
e 393 779
e 393 784
e 393 794
e 393 796
e 393 798
e 393 799
e 393 800
e 393 803
e 393 804
e 393 806
e 393 807
e 393 809
e 393 812
e 393 813
e 393 814
e 393 817
e 393 821
e 393 823
e 393 824
e 393 825
e 393 826
e 393 828
e 393 829
e 393 830
e 393 832
e 393 835
e 393 836
e 393 843
e 393 848
e 393 850
e 394 395
e 394 396
e 394 397
e 394 400
e 394 403
e 394 414
e 394 417
e 394 419
e 394 421
e 394 422
e 394 427
e 394 428
e 394 429
e 394 431
e 394 433
e 394 435
e 394 437
e 394 440
e 394 441
e 394 443
e 394 444
e 394 445
e 394 446
e 394 447
e 394 448
e 394 452
e 394 453
e 394 456
e 394 457
e 394 458
e 394 459
e 394 461
e 394 462
e 394 464
e 394 465
e 394 466
e 394 468
e 394 469
e 394 470
e 394 471
e 394 472
e 394 475
e 394 478
e 394 480
e 394 483
e 394 484
e 394 487
e 394 488
e 394 489
e 394 493
e 394 495
e 394 496
e 394 497
e 394 499
e 394 501
e 394 502
e 394 504
e 394 505
e 394 507
e 394 509
e 394 513
e 394 514
e 394 515
e 394 516
e 394 520
e 394 522
e 394 525
e 394 526
e 394 529
e 394 531
e 394 533
e 394 534
e 394 535
e 394 538
e 394 543
e 394 548
e 394 549
e 394 550
e 394 551
e 394 552
e 394 554
e 394 556
e 394 558
e 394 561
e 394 563
e 394 564
e 394 569
e 394 570
e 394 571
e 394 572
e 394 573
e 394 574
e 394 575
e 394 578
e 394 586
e 394 588
e 394 589
e 394 595
e 394 596
e 394 610
e 394 611
e 394 612
e 394 613
e 394 614
e 394 615
e 394 616
e 394 618
e 394 620
e 394 621
e 394 623
e 394 624
e 394 625
e 394 626
e 394 627
e 394 628
e 394 629
e 394 630
e 394 631
e 394 632
e 394 633
e 394 641
e 394 642
e 394 647
e 394 651
e 394 654
e 394 656
e 394 657
e 394 659
e 394 660
e 394 661
e 394 663
e 394 666
e 394 667
e 394 668
e 394 669
e 394 670
e 394 671
e 394 672
e 394 674
e 394 676
e 394 677
e 394 679
e 394 680
e 394 686
e 394 687
e 394 688
e 394 691
e 394 695
e 394 697
e 394 703
e 394 704
e 394 707
e 394 709
e 394 710
e 394 712
e 394 714
e 394 715
e 394 716
e 394 717
e 394 719
e 394 720
e 394 721
e 394 722
e 394 723
e 394 724
e 394 727
e 394 728
e 394 731
e 394 737
e 394 738
e 394 739
e 394 740
e 394 741
e 394 742
e 394 744
e 394 745
e 394 751
e 394 752
e 394 753
e 394 755
e 394 756
e 394 757
e 394 759
e 394 760
e 394 761
e 394 763
e 394 764
e 394 766
e 394 767
e 394 768
e 394 769
e 394 770
e 394 772
e 394 773
e 394 774
e 394 775
e 394 776
e 394 777
e 394 778
e 394 779
e 394 780
e 394 781
e 394 782
e 394 787
e 394 790
e 394 794
e 394 796
e 394 797
e 394 798
e 394 799
e 394 801
e 394 803
e 394 805
e 394 806
e 394 807
e 394 809
e 394 812
e 394 813
e 394 814
e 394 816
e 394 817
e 394 819
e 394 820
e 394 821
e 394 822
e 394 823
e 394 824
e 394 825
e 394 826
e 394 827
e 394 828
e 394 830
e 394 831
e 394 832
e 394 833
e 394 835
e 394 836
e 394 840
e 394 843
e 394 844
e 394 845
e 394 846
e 394 849
e 394 850
e 394 852
e 394 853
e 394 854
e 395 396
e 395 397
e 395 400
e 395 403
e 395 404
e 395 407
e 395 413
e 395 417
e 395 418
e 395 421
e 395 422
e 395 424
e 395 428
e 395 429
e 395 430
e 395 432
e 395 433
e 395 435
e 395 436
e 395 437
e 395 440
e 395 442
e 395 443
e 395 448
e 395 450
e 395 451
e 395 452
e 395 453
e 395 455
e 395 456
e 395 457
e 395 458
e 395 459
e 395 460
e 395 461
e 395 462
e 395 463
e 395 464
e 395 466
e 395 468
e 395 469
e 395 470
e 395 471
e 395 472
e 395 854
e 396 397
e 396 415
e 396 416
e 396 417
e 396 420
e 396 421
e 396 426
e 396 434
e 396 443
e 396 444
e 396 448
e 396 449
e 396 451
e 396 453
e 396 455
e 396 456
e 396 457
e 396 459
e 396 460
e 396 461
e 396 462
e 396 464
e 396 465
e 396 468
e 396 469
e 396 473
e 396 483
e 396 485
e 396 489
e 396 504
e 396 508
e 396 509
e 396 531
e 396 535
e 396 538
e 396 543
e 396 548
e 396 550
e 396 552
e 396 566
e 396 569
e 396 570
e 396 578
e 396 589
e 396 607
e 396 615
e 396 616
e 396 624
e 396 626
e 396 627
e 396 629
e 396 642
e 396 657
e 396 668
e 396 675
e 396 679
e 396 695
e 396 703
e 396 707
e 396 717
e 396 741
e 396 742
e 396 745
e 396 752
e 396 757
e 396 759
e 396 761
e 396 768
e 396 769
e 396 779
e 396 780
e 396 794
e 396 796
e 396 798
e 396 799
e 396 800
e 396 813
e 396 822
e 396 824
e 396 827
e 396 828
e 396 829
e 396 830
e 396 832
e 396 833
e 396 835
e 396 836
e 396 840
e 396 844
e 396 848
e 396 850
e 396 854
e 397 403
e 397 415
e 397 435
e 397 438
e 397 443
e 397 452
e 397 454
e 397 455
e 397 456
e 397 458
e 397 460
e 397 462
e 397 466
e 397 473
e 398 400
e 398 402
e 398 405
e 398 406
e 398 408
e 398 419
e 398 423
e 398 424
e 398 425
e 398 431
e 398 433
e 398 444
e 398 452
e 398 453
e 398 456
e 398 462
e 398 466
e 398 470
e 398 475
e 398 476
e 398 477
e 398 479
e 398 485
e 398 505
e 398 510
e 398 538
e 398 550
e 398 577
e 398 578
e 398 588
e 398 596
e 398 623
e 398 627
e 398 650
e 398 706
e 398 721
e 398 735
e 398 736
e 398 742
e 398 744
e 398 745
e 398 769
e 398 778
e 398 799
e 398 822
e 398 827
e 398 830
e 398 835
e 398 836
e 398 848
e 399 405
e 399 406
e 399 423
e 399 424
e 399 425
e 399 429
e 399 431
e 399 439
e 399 452
e 399 453
e 399 457
e 399 462
e 399 475
e 399 476
e 399 477
e 399 479
e 400 402
e 400 404
e 400 405
e 400 408
e 400 412
e 400 413
e 400 414
e 400 417
e 400 418
e 400 419
e 400 422
e 400 424
e 400 425
e 400 426
e 400 427
e 400 430
e 400 433
e 400 435
e 400 436
e 400 437
e 400 442
e 400 443
e 400 444
e 400 450
e 400 452
e 400 453
e 400 454
e 400 456
e 400 457
e 400 459
e 400 460
e 400 462
e 400 463
e 400 467
e 400 468
e 400 469
e 400 470
e 400 471
e 400 472
e 400 474
e 400 475
e 400 476
e 400 477
e 400 478
e 400 479
e 400 480
e 400 484
e 400 488
e 400 489
e 400 490
e 400 491
e 400 492
e 400 493
e 400 494
e 400 497
e 400 498
e 400 499
e 400 501
e 400 502
e 400 503
e 400 504
e 400 505
e 400 507
e 400 508
e 400 509
e 400 510
e 400 511
e 400 513
e 400 514
e 400 515
e 400 516
e 400 520
e 400 522
e 400 524
e 400 526
e 400 529
e 400 535
e 400 536
e 400 537
e 400 538
e 400 539
e 400 543
e 400 548
e 400 549
e 400 550
e 400 551
e 400 552
e 400 553
e 400 554
e 400 555
e 400 569
e 400 578
e 400 585
e 400 586
e 400 587
e 400 588
e 400 589
e 400 591
e 400 595
e 400 596
e 400 597
e 400 598
e 400 599
e 400 603
e 400 609
e 400 612
e 400 613
e 400 614
e 400 615
e 400 616
e 400 618
e 400 621
e 400 623
e 400 625
e 400 627
e 400 636
e 400 637
e 400 639
e 400 641
e 400 642
e 400 647
e 400 653
e 400 654
e 400 657
e 400 661
e 400 664
e 400 665
e 400 670
e 400 672
e 400 673
e 400 674
e 400 676
e 400 679
e 400 682
e 400 685
e 400 686
e 400 687
e 400 690
e 400 692
e 400 693
e 400 695
e 400 699
e 400 701
e 400 704
e 400 705
e 400 713
e 400 715
e 400 716
e 400 718
e 400 720
e 400 721
e 400 724
e 400 725
e 400 726
e 400 729
e 400 734
e 400 735
e 400 739
e 400 740
e 400 741
e 400 742
e 400 743
e 400 744
e 400 745
e 400 746
e 400 750
e 400 751
e 400 754
e 400 755
e 400 757
e 400 758
e 400 759
e 400 769
e 400 770
e 400 771
e 400 772
e 400 773
e 400 774
e 400 775
e 400 778
e 400 779
e 400 780
e 400 782
e 400 783
e 400 785
e 400 786
e 400 788
e 400 789
e 400 790
e 400 795
e 400 799
e 400 801
e 400 803
e 400 804
e 400 805
e 400 808
e 400 810
e 400 812
e 400 814
e 400 815
e 400 816
e 400 818
e 400 823
e 400 824
e 400 825
e 400 826
e 400 831
e 400 833
e 400 834
e 400 837
e 400 838
e 400 839
e 400 840
e 400 841
e 400 842
e 400 843
e 400 845
e 400 846
e 400 847
e 400 849
e 400 851
e 400 852
e 400 853
e 400 855
e 401 417
e 401 438
e 401 449
e 401 454
e 401 456
e 401 458
e 401 460
e 401 464
e 401 466
e 401 478
e 401 480
e 402 405
e 402 408
e 402 414
e 402 425
e 402 433
e 402 452
e 402 453
e 402 462
e 402 475
e 402 476
e 402 477
e 402 479
e 403 417
e 403 420
e 403 422
e 403 434
e 403 445
e 403 446
e 403 448
e 403 451
e 403 453
e 403 456
e 403 457
e 403 458
e 403 459
e 403 461
e 403 465
e 403 475
e 403 854
e 404 413
e 404 417
e 404 418
e 404 422
e 404 430
e 404 436
e 404 437
e 404 442
e 404 450
e 404 463
e 404 467
e 404 474
e 404 478
e 404 480
e 405 406
e 405 408
e 405 423
e 405 424
e 405 425
e 405 433
e 405 439
e 405 452
e 405 453
e 405 462
e 405 475
e 405 476
e 405 477
e 405 479
e 406 423
e 406 424
e 406 429
e 406 431
e 406 439
e 406 444
e 406 453
e 406 466
e 407 417
e 407 421
e 407 432
e 407 436
e 407 439
e 407 442
e 407 443
e 407 456
e 407 462
e 407 468
e 407 469
e 407 471
e 407 472
e 407 473
e 407 474
e 407 854
e 408 417
e 408 419
e 408 425
e 408 452
e 408 453
e 408 462
e 408 475
e 408 476
e 408 479
e 409 410
e 409 411
e 409 420
e 409 422
e 409 424
e 409 437
e 409 445
e 409 446
e 409 451
e 409 453
e 409 470
e 410 411
e 410 420
e 410 422
e 410 424
e 410 437
e 410 445
e 410 446
e 410 451
e 410 453
e 410 470
e 411 420
e 411 422
e 411 424
e 411 437
e 411 445
e 411 446
e 411 451
e 411 453
e 411 470
e 412 426
e 412 437
e 412 444
e 412 467
e 412 469
e 412 472
e 412 479
e 412 480
e 413 416
e 413 417
e 413 418
e 413 422
e 413 429
e 413 430
e 413 437
e 413 442
e 413 447
e 413 450
e 413 453
e 413 457
e 413 463
e 413 469
e 413 471
e 413 473
e 413 474
e 413 477
e 413 478
e 413 480
e 413 854
e 414 415
e 414 417
e 414 419
e 414 425
e 414 429
e 414 431
e 414 440
e 414 441
e 414 452
e 414 462
e 414 468
e 414 473
e 415 416
e 415 419
e 415 420
e 415 429
e 415 438
e 415 440
e 415 443
e 415 449
e 415 451
e 415 452
e 415 453
e 415 454
e 415 456
e 415 458
e 415 461
e 415 462
e 415 465
e 415 468
e 415 473
e 415 854
e 416 420
e 416 421
e 416 428
e 416 429
e 416 443
e 416 447
e 416 449
e 416 450
e 416 456
e 416 457
e 416 461
e 416 465
e 416 472
e 416 473
e 416 477
e 416 854
e 417 418
e 417 419
e 417 420
e 417 421
e 417 422
e 417 424
e 417 427
e 417 429
e 417 430
e 417 431
e 417 432
e 417 434
e 417 435
e 417 436
e 417 437
e 417 440
e 417 441
e 417 442
e 417 444
e 417 445
e 417 446
e 417 448
e 417 449
e 417 450
e 417 451
e 417 452
e 417 453
e 417 454
e 417 455
e 417 456
e 417 457
e 417 458
e 417 459
e 417 460
e 417 461
e 417 462
e 417 463
e 417 464
e 417 465
e 417 467
e 417 468
e 417 469
e 417 471
e 417 472
e 417 474
e 417 475
e 417 478
e 417 480
e 417 483
e 417 485
e 417 489
e 417 493
e 417 495
e 417 504
e 417 505
e 417 508
e 417 509
e 417 513
e 417 515
e 417 526
e 417 531
e 417 538
e 417 548
e 417 550
e 417 551
e 417 565
e 417 569
e 417 570
e 417 578
e 417 579
e 417 588
e 417 589
e 417 595
e 417 607
e 417 616
e 417 622
e 417 627
e 417 628
e 417 629
e 417 635
e 417 638
e 417 641
e 417 642
e 417 647
e 417 657
e 417 658
e 417 661
e 417 667
e 417 668
e 417 672
e 417 674
e 417 675
e 417 677
e 417 678
e 417 679
e 417 687
e 417 688
e 417 694
e 417 695
e 417 697
e 417 699
e 417 703
e 417 707
e 417 722
e 417 730
e 417 732
e 417 739
e 417 741
e 417 742
e 417 744
e 417 748
e 417 752
e 417 757
e 417 759
e 417 770
e 417 778
e 417 796
e 417 798
e 417 801
e 417 803
e 417 808
e 417 811
e 417 816
e 417 822
e 417 825
e 417 831
e 417 832
e 417 833
e 417 836
e 417 837
e 417 840
e 417 844
e 417 848
e 417 850
e 417 854
e 418 422
e 418 430
e 418 432
e 418 436
e 418 437
e 418 438
e 418 440
e 418 442
e 418 443
e 418 450
e 418 455
e 418 456
e 418 463
e 418 469
e 418 472
e 418 477
e 419 420
e 419 425
e 419 428
e 419 429
e 419 431
e 419 433
e 419 437
e 419 441
e 419 448
e 419 449
e 419 459
e 419 464
e 419 465
e 419 468
e 419 473
e 420 421
e 420 422
e 420 424
e 420 430
e 420 434
e 420 437
e 420 439
e 420 443
e 420 445
e 420 446
e 420 447
e 420 448
e 420 449
e 420 451
e 420 453
e 420 454
e 420 455
e 420 456
e 420 457
e 420 459
e 420 460
e 420 461
e 420 464
e 420 465
e 420 466
e 420 470
e 420 472
e 420 473
e 420 854
e 421 432
e 421 442
e 421 456
e 421 462
e 421 464
e 421 465
e 421 469
e 421 471
e 421 472
e 421 473
e 421 474
e 422 424
e 422 430
e 422 432
e 422 437
e 422 442
e 422 443
e 422 445
e 422 446
e 422 448
e 422 450
e 422 451
e 422 453
e 422 456
e 422 458
e 422 461
e 422 463
e 422 469
e 422 470
e 422 471
e 422 474
e 422 475
e 422 478
e 422 480
e 422 854
e 423 424
e 423 429
e 423 431
e 423 439
e 423 444
e 423 450
e 423 452
e 423 453
e 423 457
e 423 462
e 423 466
e 423 475
e 423 476
e 423 477
e 423 479
e 424 429
e 424 430
e 424 431
e 424 435
e 424 437
e 424 439
e 424 442
e 424 444
e 424 445
e 424 446
e 424 450
e 424 451
e 424 452
e 424 453
e 424 456
e 424 457
e 424 460
e 424 463
e 424 466
e 424 470
e 424 474
e 425 429
e 425 431
e 425 433
e 425 452
e 425 453
e 425 456
e 425 462
e 425 475
e 425 476
e 425 477
e 425 479
e 426 437
e 426 444
e 426 454
e 426 459
e 426 467
e 426 468
e 426 469
e 426 472
e 426 474
e 426 476
e 426 479
e 426 480
e 426 483
e 426 484
e 426 485
e 426 489
e 426 493
e 426 499
e 426 504
e 426 505
e 426 508
e 426 509
e 426 510
e 426 514
e 426 516
e 426 522
e 426 526
e 426 531
e 426 535
e 426 543
e 426 548
e 426 549
e 426 550
e 426 552
e 426 566
e 426 569
e 426 570
e 426 578
e 426 588
e 426 589
e 426 595
e 426 598
e 426 599
e 426 606
e 426 607
e 426 615
e 426 616
e 426 623
e 426 624
e 426 626
e 426 627
e 426 629
e 426 641
e 426 642
e 426 645
e 426 646
e 426 647
e 426 648
e 426 654
e 426 657
e 426 661
e 426 662
e 426 675
e 426 676
e 426 679
e 426 699
e 426 703
e 426 704
e 426 707
e 426 713
e 426 715
e 426 721
e 426 726
e 426 739
e 426 741
e 426 744
e 426 745
e 426 751
e 426 754
e 426 757
e 426 759
e 426 761
e 426 768
e 426 769
e 426 775
e 426 778
e 426 779
e 426 780
e 426 782
e 426 783
e 426 785
e 426 791
e 426 792
e 426 793
e 426 794
e 426 802
e 426 803
e 426 816
e 426 819
e 426 820
e 426 821
e 426 822
e 426 828
e 426 831
e 426 837
e 426 839
e 426 841
e 426 842
e 426 844
e 426 847
e 426 851
e 426 852
e 426 855
e 427 443
e 427 444
e 427 454
e 427 459
e 427 470
e 427 478
e 427 484
e 427 489
e 427 499
e 427 507
e 427 514
e 427 515
e 427 516
e 427 520
e 427 535
e 427 538
e 427 542
e 427 543
e 427 548
e 427 549
e 427 550
e 427 552
e 427 569
e 427 570
e 427 588
e 427 595
e 427 596
e 427 602
e 427 608
e 427 610
e 427 611
e 427 616
e 427 624
e 427 627
e 427 641
e 427 644
e 427 647
e 427 661
e 427 667
e 427 668
e 427 679
e 427 686
e 427 687
e 427 695
e 427 697
e 427 701
e 427 708
e 427 714
e 427 715
e 427 723
e 427 724
e 427 727
e 427 738
e 427 739
e 427 740
e 427 742
e 427 751
e 427 757
e 427 759
e 427 766
e 427 767
e 427 774
e 427 778
e 427 779
e 427 796
e 427 806
e 427 812
e 427 813
e 427 814
e 427 816
e 427 821
e 427 823
e 427 825
e 427 826
e 427 828
e 427 831
e 427 833
e 428 433
e 428 434
e 428 435
e 428 438
e 428 447
e 428 452
e 428 455
e 428 457
e 428 466
e 429 431
e 429 432
e 429 440
e 429 441
e 429 444
e 429 447
e 429 449
e 429 450
e 429 451
e 429 452
e 429 453
e 429 456
e 429 457
e 429 461
e 429 462
e 429 468
e 429 473
e 429 477
e 429 854
e 430 437
e 430 442
e 430 443
e 430 450
e 430 452
e 430 453
e 430 460
e 430 463
e 430 469
e 430 471
e 430 474
e 430 478
e 430 480
e 431 440
e 431 441
e 431 444
e 431 457
e 431 466
e 432 442
e 432 443
e 432 456
e 432 457
e 432 461
e 432 469
e 432 471
e 432 472
e 433 434
e 433 435
e 433 444
e 433 452
e 433 453
e 433 455
e 433 456
e 433 459
e 433 462
e 433 466
e 433 468
e 433 475
e 433 476
e 433 477
e 433 479
e 434 435
e 434 448
e 434 451
e 434 452
e 434 453
e 434 455
e 434 457
e 434 459
e 434 460
e 434 461
e 434 464
e 434 465
e 434 854
e 435 447
e 435 452
e 435 454
e 435 455
e 435 456
e 435 458
e 435 459
e 435 460
e 435 463
e 435 466
e 435 468
e 436 437
e 436 438
e 436 440
e 436 442
e 436 450
e 436 455
e 436 456
e 436 462
e 436 467
e 436 471
e 436 472
e 436 474
e 436 477
e 436 478
e 436 480
e 437 442
e 437 443
e 437 444
e 437 445
e 437 446
e 437 448
e 437 449
e 437 450
e 437 451
e 437 452
e 437 453
e 437 459
e 437 460
e 437 463
e 437 464
e 437 465
e 437 467
e 437 469
e 437 470
e 437 471
e 437 472
e 437 474
e 437 478
e 437 480
e 437 484
e 437 487
e 437 493
e 437 502
e 437 515
e 437 516
e 437 520
e 437 535
e 437 538
e 437 543
e 437 548
e 437 549
e 437 551
e 437 552
e 437 554
e 437 555
e 437 570
e 437 589
e 437 610
e 437 613
e 437 615
e 437 625
e 437 639
e 437 642
e 437 657
e 437 675
e 437 676
e 437 679
e 437 695
e 437 701
e 437 704
e 437 705
e 437 708
e 437 718
e 437 720
e 437 725
e 437 729
e 437 735
e 437 741
e 437 743
e 437 744
e 437 746
e 437 750
e 437 751
e 437 755
e 437 757
e 437 764
e 437 769
e 437 772
e 437 773
e 437 778
e 437 779
e 437 781
e 437 782
e 437 786
e 437 789
e 437 790
e 437 794
e 437 804
e 437 806
e 437 812
e 437 831
e 437 833
e 437 845
e 437 846
e 437 849
e 437 853
e 438 440
e 438 443
e 438 447
e 438 450
e 438 452
e 438 454
e 438 455
e 438 456
e 438 457
e 438 458
e 438 460
e 438 462
e 438 466
e 438 472
e 438 473
e 438 477
e 438 478
e 438 480
e 439 443
e 439 452
e 439 453
e 439 457
e 439 462
e 439 468
e 439 473
e 439 475
e 439 476
e 439 477
e 439 479
e 439 854
e 440 441
e 440 449
e 440 450
e 440 451
e 440 453
e 440 455
e 440 456
e 440 468
e 440 472
e 440 477
e 440 854
e 441 457
e 441 472
e 442 450
e 442 452
e 442 456
e 442 460
e 442 462
e 442 463
e 442 469
e 442 471
e 442 472
e 443 449
e 443 452
e 443 454
e 443 456
e 443 457
e 443 458
e 443 459
e 443 461
e 443 462
e 443 465
e 443 468
e 443 469
e 443 473
e 443 478
e 443 484
e 443 487
e 443 489
e 443 493
e 443 499
e 443 502
e 443 514
e 443 515
e 443 516
e 443 520
e 443 535
e 443 538
e 443 543
e 443 548
e 443 549
e 443 551
e 443 552
e 443 554
e 443 569
e 443 570
e 443 588
e 443 589
e 443 595
e 443 611
e 443 615
e 443 616
e 443 623
e 443 624
e 443 625
e 443 641
e 443 642
e 443 647
e 443 661
e 443 667
e 443 668
e 443 677
e 443 679
e 443 680
e 443 686
e 443 687
e 443 697
e 443 704
e 443 709
e 443 713
e 443 723
e 443 727
e 443 738
e 443 741
e 443 742
e 443 744
e 443 751
e 443 754
e 443 757
e 443 764
e 443 766
e 443 767
e 443 769
e 443 772
e 443 773
e 443 777
e 443 778
e 443 779
e 443 781
e 443 782
e 443 794
e 443 798
e 443 806
e 443 812
e 443 813
e 443 814
e 443 821
e 443 823
e 443 825
e 443 826
e 443 828
e 443 831
e 443 841
e 443 854
e 444 448
e 444 453
e 444 454
e 444 457
e 444 459
e 444 466
e 444 467
e 444 468
e 444 470
e 444 471
e 444 478
e 444 479
e 444 483
e 444 485
e 444 487
e 444 489
e 444 497
e 444 500
e 444 501
e 444 502
e 444 504
e 444 506
e 444 507
e 444 508
e 444 509
e 444 510
e 444 512
e 444 513
e 444 514
e 444 515
e 444 516
e 444 520
e 444 522
e 444 526
e 444 531
e 444 534
e 444 535
e 444 538
e 444 540
e 444 542
e 444 543
e 444 544
e 444 545
e 444 546
e 444 547
e 444 548
e 444 549
e 444 550
e 444 551
e 444 552
e 444 556
e 444 557
e 444 558
e 444 565
e 444 569
e 444 570
e 444 578
e 444 586
e 444 588
e 444 589
e 444 591
e 444 595
e 444 596
e 444 601
e 444 602
e 444 607
e 444 608
e 444 610
e 444 613
e 444 615
e 444 616
e 444 622
e 444 624
e 444 626
e 444 627
e 444 628
e 444 629
e 444 630
e 444 632
e 444 633
e 444 635
e 444 638
e 444 639
e 444 640
e 444 641
e 444 642
e 444 644
e 444 647
e 444 654
e 444 655
e 444 657
e 444 660
e 444 661
e 444 667
e 444 669
e 444 670
e 444 671
e 444 672
e 444 674
e 444 675
e 444 676
e 444 678
e 444 679
e 444 687
e 444 695
e 444 697
e 444 698
e 444 700
e 444 701
e 444 704
e 444 707
e 444 708
e 444 714
e 444 715
e 444 718
e 444 720
e 444 721
e 444 722
e 444 723
e 444 724
e 444 725
e 444 729
e 444 735
e 444 739
e 444 740
e 444 741
e 444 742
e 444 743
e 444 744
e 444 746
e 444 749
e 444 750
e 444 751
e 444 752
e 444 756
e 444 757
e 444 758
e 444 759
e 444 762
e 444 765
e 444 769
e 444 770
e 444 772
e 444 773
e 444 774
e 444 778
e 444 779
e 444 780
e 444 784
e 444 786
e 444 789
e 444 790
e 444 795
e 444 796
e 444 797
e 444 798
e 444 800
e 444 804
e 444 805
e 444 807
e 444 809
e 444 810
e 444 812
e 444 816
e 444 821
e 444 822
e 444 824
e 444 825
e 444 831
e 444 832
e 444 833
e 444 836
e 444 837
e 444 838
e 444 842
e 444 843
e 444 844
e 444 845
e 444 846
e 444 848
e 444 849
e 444 850
e 444 852
e 444 853
e 445 446
e 445 451
e 445 453
e 445 456
e 445 458
e 445 461
e 445 470
e 445 475
e 445 854
e 446 451
e 446 453
e 446 456
e 446 458
e 446 461
e 446 470
e 446 475
e 446 854
e 447 450
e 447 452
e 447 454
e 447 455
e 447 457
e 447 466
e 447 470
e 447 473
e 447 477
e 447 478
e 447 480
e 447 481
e 447 482
e 447 483
e 447 484
e 447 485
e 447 502
e 447 507
e 447 513
e 447 515
e 447 521
e 447 522
e 447 523
e 447 533
e 447 535
e 447 543
e 447 548
e 447 550
e 447 551
e 447 552
e 447 560
e 447 561
e 447 562
e 447 564
e 447 569
e 447 570
e 447 578
e 447 586
e 447 588
e 447 616
e 447 631
e 447 641
e 447 642
e 447 643
e 447 647
e 447 654
e 447 659
e 447 664
e 447 666
e 447 676
e 447 679
e 447 687
e 447 688
e 447 707
e 447 710
e 447 717
e 447 719
e 447 728
e 447 739
e 447 741
e 447 742
e 447 756
e 447 757
e 447 777
e 447 796
e 447 799
e 447 807
e 447 809
e 447 817
e 447 843
e 447 854
e 448 449
e 448 451
e 448 453
e 448 455
e 448 456
e 448 457
e 448 459
e 448 460
e 448 461
e 448 462
e 448 464
e 448 465
e 448 468
e 448 471
e 448 478
e 448 483
e 448 493
e 448 495
e 448 497
e 448 501
e 448 504
e 448 505
e 448 508
e 448 509
e 448 513
e 448 522
e 448 526
e 448 529
e 448 530
e 448 531
e 448 532
e 448 535
e 448 538
e 448 548
e 448 550
e 448 551
e 448 557
e 448 569
e 448 570
e 448 578
e 448 579
e 448 582
e 448 583
e 448 584
e 448 600
e 448 615
e 448 622
e 448 627
e 448 628
e 448 638
e 448 641
e 448 652
e 448 654
e 448 657
e 448 658
e 448 668
e 448 672
e 448 674
e 448 677
e 448 678
e 448 679
e 448 681
e 448 682
e 448 683
e 448 684
e 448 687
e 448 688
e 448 689
e 448 695
e 448 698
e 448 701
e 448 703
e 448 704
e 448 707
e 448 716
e 448 722
e 448 730
e 448 731
e 448 732
e 448 733
e 448 741
e 448 744
e 448 747
e 448 748
e 448 752
e 448 757
e 448 767
e 448 779
e 448 780
e 448 796
e 448 799
e 448 801
e 448 803
e 448 811
e 448 815
e 448 816
e 448 818
e 448 823
e 448 824
e 448 827
e 448 828
e 448 833
e 448 835
e 448 836
e 448 840
e 448 842
e 448 843
e 448 850
e 448 853
e 448 854
e 449 451
e 449 453
e 449 456
e 449 458
e 449 459
e 449 461
e 449 464
e 449 465
e 449 468
e 449 473
e 449 478
e 449 480
e 449 854
e 450 452
e 450 455
e 450 456
e 450 457
e 450 460
e 450 462
e 450 463
e 450 472
e 450 473
e 450 477
e 450 854
e 451 453
e 451 455
e 451 456
e 451 457
e 451 459
e 451 460
e 451 461
e 451 462
e 451 464
e 451 465
e 451 468
e 451 470
e 451 854
e 452 453
e 452 454
e 452 455
e 452 456
e 452 457
e 452 458
e 452 460
e 452 462
e 452 463
e 452 466
e 452 473
e 452 475
e 452 476
e 452 477
e 452 478
e 452 479
e 452 484
e 452 502
e 452 507
e 452 550
e 452 578
e 452 586
e 452 588
e 452 616
e 452 643
e 452 654
e 452 659
e 452 664
e 452 679
e 452 687
e 452 688
e 452 707
e 452 710
e 452 717
e 452 719
e 452 739
e 452 742
e 452 756
e 452 807
e 452 809
e 453 455
e 453 456
e 453 457
e 453 458
e 453 459
e 453 460
e 453 461
e 453 462
e 453 463
e 453 464
e 453 465
e 453 468
e 453 469
e 453 470
e 453 471
e 453 474
e 453 475
e 453 476
e 453 477
e 453 478
e 453 479
e 453 480
e 453 483
e 453 489
e 453 496
e 453 504
e 453 508
e 453 509
e 453 510
e 453 529
e 453 531
e 453 538
e 453 543
e 453 548
e 453 549
e 453 550
e 453 552
e 453 569
e 453 570
e 453 578
e 453 589
e 453 610
e 453 613
e 453 615
e 453 620
e 453 623
e 453 624
e 453 627
e 453 629
e 453 642
e 453 647
e 453 649
e 453 656
e 453 663
e 453 676
e 453 679
e 453 695
e 453 706
e 453 711
e 453 712
e 453 716
e 453 717
e 453 731
e 453 732
e 453 738
e 453 741
e 453 742
e 453 744
e 453 745
e 453 748
e 453 757
e 453 760
e 453 766
e 453 769
e 453 776
e 453 781
e 453 782
e 453 787
e 453 799
e 453 800
e 453 803
e 453 807
e 453 808
e 453 810
e 453 813
e 453 819
e 453 820
e 453 822
e 453 824
e 453 827
e 453 828
e 453 829
e 453 830
e 453 832
e 453 833
e 453 834
e 453 835
e 453 836
e 453 840
e 453 842
e 453 844
e 453 845
e 453 848
e 453 850
e 453 851
e 453 854
e 453 855
e 454 456
e 454 458
e 454 459
e 454 460
e 454 462
e 454 466
e 454 470
e 454 473
e 454 478
e 454 480
e 454 484
e 454 489
e 454 499
e 454 510
e 454 515
e 454 516
e 454 520
e 454 535
e 454 538
e 454 543
e 454 548
e 454 549
e 454 550
e 454 552
e 454 569
e 454 570
e 454 578
e 454 588
e 454 595
e 454 606
e 454 610
e 454 615
e 454 616
e 454 623
e 454 641
e 454 644
e 454 645
e 454 646
e 454 647
e 454 648
e 454 657
e 454 661
e 454 667
e 454 668
e 454 676
e 454 679
e 454 686
e 454 695
e 454 697
e 454 699
e 454 701
e 454 713
e 454 715
e 454 723
e 454 739
e 454 742
e 454 745
e 454 751
e 454 754
e 454 757
e 454 759
e 454 766
e 454 767
e 454 769
e 454 775
e 454 778
e 454 779
e 454 785
e 454 796
e 454 802
e 454 814
e 454 816
e 454 821
e 454 823
e 454 825
e 454 826
e 454 831
e 454 833
e 454 837
e 454 841
e 454 851
e 454 855
e 455 456
e 455 457
e 455 459
e 455 460
e 455 461
e 455 464
e 455 465
e 455 472
e 455 477
e 455 854
e 456 457
e 456 458
e 456 459
e 456 460
e 456 461
e 456 462
e 456 463
e 456 464
e 456 465
e 456 466
e 456 468
e 456 469
e 456 471
e 456 472
e 456 473
e 456 474
e 456 475
e 456 477
e 456 478
e 456 480
e 456 854
e 457 459
e 457 460
e 457 461
e 457 462
e 457 463
e 457 464
e 457 465
e 457 466
e 457 468
e 457 470
e 457 471
e 457 473
e 457 474
e 457 475
e 457 476
e 457 477
e 457 478
e 457 479
e 457 484
e 457 487
e 457 488
e 457 489
e 457 490
e 457 491
e 457 492
e 457 494
e 457 500
e 457 501
e 457 502
e 457 506
e 457 508
e 457 509
e 457 510
e 457 512
e 457 514
e 457 515
e 457 516
e 457 536
e 457 537
e 457 539
e 457 543
e 457 548
e 457 549
e 457 550
e 457 551
e 457 552
e 457 555
e 457 556
e 457 569
e 457 570
e 457 586
e 457 588
e 457 589
e 457 595
e 457 596
e 457 609
e 457 615
e 457 625
e 457 641
e 457 679
e 457 700
e 457 704
e 457 724
e 457 725
e 457 735
e 457 741
e 457 742
e 457 744
e 457 751
e 457 756
e 457 757
e 457 769
e 457 773
e 457 781
e 457 782
e 457 794
e 457 804
e 457 809
e 457 814
e 457 825
e 457 831
e 457 854
e 458 461
e 458 462
e 458 464
e 458 466
e 458 473
e 458 475
e 458 478
e 458 480
e 458 854
e 459 460
e 459 461
e 459 464
e 459 465
e 459 466
e 459 468
e 459 483
e 459 484
e 459 485
e 459 489
e 459 504
e 459 505
e 459 510
e 459 515
e 459 516
e 459 531
e 459 538
e 459 548
e 459 550
e 459 569
e 459 570
e 459 578
e 459 588
e 459 589
e 459 595
e 459 607
e 459 615
e 459 616
e 459 620
e 459 623
e 459 625
e 459 627
e 459 629
e 459 641
e 459 642
e 459 647
e 459 656
e 459 657
e 459 661
e 459 675
e 459 676
e 459 679
e 459 695
e 459 704
e 459 739
e 459 741
e 459 742
e 459 745
e 459 751
e 459 757
e 459 759
e 459 760
e 459 769
e 459 773
e 459 778
e 459 781
e 459 782
e 459 785
e 459 787
e 459 794
e 459 799
e 459 803
e 459 814
e 459 816
e 459 819
e 459 820
e 459 822
e 459 825
e 459 831
e 459 832
e 459 833
e 459 835
e 459 844
e 459 845
e 459 850
e 459 851
e 459 854
e 459 855
e 460 461
e 460 463
e 460 464
e 460 465
e 460 466
e 460 471
e 460 474
e 460 478
e 460 480
e 460 854
e 461 464
e 461 465
e 461 473
e 461 475
e 461 854
e 462 464
e 462 465
e 462 468
e 462 469
e 462 471
e 462 473
e 462 475
e 462 476
e 462 477
e 462 479
e 462 854
e 463 469
e 463 471
e 463 474
e 463 478
e 463 480
e 464 465
e 464 469
e 464 478
e 464 480
e 464 854
e 465 469
e 465 473
e 465 854
e 466 468
e 466 470
e 466 471
e 466 474
e 466 478
e 466 480
e 467 469
e 467 472
e 467 474
e 467 478
e 467 479
e 467 480
e 468 473
e 468 474
e 468 483
e 468 485
e 468 489
e 468 501
e 468 504
e 468 505
e 468 508
e 468 509
e 468 510
e 468 531
e 468 535
e 468 538
e 468 548
e 468 549
e 468 550
e 468 569
e 468 570
e 468 578
e 468 585
e 468 589
e 468 595
e 468 607
e 468 615
e 468 623
e 468 627
e 468 629
e 468 642
e 468 647
e 468 654
e 468 657
e 468 668
e 468 670
e 468 672
e 468 673
e 468 675
e 468 676
e 468 679
e 468 682
e 468 685
e 468 693
e 468 695
e 468 704
e 468 707
e 468 721
e 468 739
e 468 741
e 468 742
e 468 744
e 468 752
e 468 759
e 468 771
e 468 779
e 468 780
e 468 785
e 468 788
e 468 796
e 468 798
e 468 799
e 468 815
e 468 822
e 468 823
e 468 827
e 468 832
e 468 833
e 468 835
e 468 836
e 468 838
e 468 840
e 468 844
e 468 848
e 468 851
e 468 854
e 468 855
e 469 471
e 469 472
e 469 474
e 469 478
e 469 480
e 470 478
e 470 484
e 470 485
e 470 487
e 470 488
e 470 489
e 470 490
e 470 491
e 470 492
e 470 494
e 470 495
e 470 496
e 470 497
e 470 501
e 470 502
e 470 505
e 470 507
e 470 510
e 470 514
e 470 516
e 470 519
e 470 522
e 470 535
e 470 536
e 470 537
e 470 538
e 470 539
e 470 542
e 470 549
e 470 550
e 470 551
e 470 552
e 470 555
e 470 570
e 470 571
e 470 572
e 470 573
e 470 574
e 470 575
e 470 577
e 470 578
e 470 586
e 470 588
e 470 590
e 470 595
e 470 596
e 470 602
e 470 608
e 470 609
e 470 612
e 470 614
e 470 615
e 470 616
e 470 618
e 470 621
e 470 623
e 470 625
e 470 627
e 470 641
e 470 644
e 470 650
e 470 654
e 470 679
e 470 680
e 470 686
e 470 687
e 470 697
e 470 701
e 470 704
e 470 706
e 470 707
e 470 708
e 470 714
e 470 715
e 470 716
e 470 721
e 470 723
e 470 724
e 470 725
e 470 735
e 470 736
e 470 740
e 470 742
e 470 744
e 470 745
e 470 751
e 470 755
e 470 759
e 470 763
e 470 764
e 470 769
e 470 774
e 470 777
e 470 778
e 470 790
e 470 799
e 470 804
e 470 806
e 470 807
e 470 809
e 470 812
e 470 817
e 470 822
e 470 827
e 470 830
e 470 835
e 470 836
e 470 848
e 471 472
e 471 473
e 471 474
e 471 478
e 471 480
e 471 483
e 471 493
e 471 502
e 471 507
e 471 508
e 471 509
e 471 513
e 471 515
e 471 520
e 471 522
e 471 526
e 471 531
e 471 535
e 471 538
e 471 543
e 471 548
e 471 549
e 471 551
e 471 552
e 471 554
e 471 555
e 471 556
e 471 570
e 471 582
e 471 588
e 471 601
e 471 607
e 471 613
e 471 615
e 471 625
e 471 627
e 471 629
e 471 630
e 471 632
e 471 635
e 471 639
e 471 641
e 471 642
e 471 647
e 471 654
e 471 655
e 471 657
e 471 661
e 471 670
e 471 671
e 471 672
e 471 676
e 471 679
e 471 695
e 471 698
e 471 701
e 471 704
e 471 707
e 471 716
e 471 718
e 471 720
e 471 721
e 471 725
e 471 729
e 471 731
e 471 735
e 471 741
e 471 742
e 471 744
e 471 746
e 471 749
e 471 751
e 471 762
e 471 767
e 471 769
e 471 770
e 471 772
e 471 773
e 471 780
e 471 784
e 471 786
e 471 789
e 471 797
e 471 798
e 471 801
e 471 804
e 471 807
e 471 810
e 471 812
e 471 815
e 471 816
e 471 821
e 471 823
e 471 824
e 471 828
e 471 831
e 471 833
e 471 837
e 471 843
e 471 844
e 471 845
e 471 846
e 471 849
e 471 850
e 471 852
e 471 853
e 471 854
e 472 473
e 472 477
e 472 480
e 473 477
e 473 854
e 474 478
e 474 480
e 474 489
e 474 493
e 474 508
e 474 509
e 474 510
e 474 514
e 474 516
e 474 522
e 474 526
e 474 529
e 474 538
e 474 548
e 474 549
e 474 550
e 474 552
e 474 569
e 474 585
e 474 588
e 474 589
e 474 595
e 474 598
e 474 599
e 474 605
e 474 613
e 474 615
e 474 616
e 474 623
e 474 638
e 474 642
e 474 647
e 474 654
e 474 657
e 474 661
e 474 673
e 474 676
e 474 682
e 474 685
e 474 689
e 474 693
e 474 695
e 474 704
e 474 709
e 474 711
e 474 715
e 474 721
e 474 726
e 474 732
e 474 741
e 474 742
e 474 744
e 474 745
e 474 748
e 474 751
e 474 752
e 474 765
e 474 766
e 474 769
e 474 771
e 474 775
e 474 779
e 474 780
e 474 782
e 474 783
e 474 788
e 474 799
e 474 803
e 474 808
e 474 810
e 474 815
e 474 823
e 474 831
e 474 834
e 474 837
e 474 838
e 474 840
e 474 842
e 474 847
e 474 851
e 474 852
e 474 855
e 475 476
e 475 477
e 475 479
e 475 854
e 476 477
e 476 479
e 477 479
e 477 854
e 478 480
e 478 483
e 478 484
e 478 487
e 478 488
e 478 489
e 478 490
e 478 491
e 478 492
e 478 493
e 478 494
e 478 495
e 478 496
e 478 497
e 478 500
e 478 501
e 478 502
e 478 506
e 478 507
e 478 508
e 478 509
e 478 510
e 478 512
e 478 513
e 478 514
e 478 515
e 478 516
e 478 520
e 478 526
e 478 529
e 478 530
e 478 531
e 478 532
e 478 535
e 478 536
e 478 537
e 478 538
e 478 539
e 478 542
e 478 543
e 478 548
e 478 549
e 478 550
e 478 551
e 478 552
e 478 555
e 478 556
e 478 557
e 478 567
e 478 568
e 478 569
e 478 570
e 478 578
e 478 586
e 478 588
e 478 595
e 478 596
e 478 602
e 478 606
e 478 608
e 478 609
e 478 613
e 478 616
e 478 622
e 478 627
e 478 628
e 478 638
e 478 640
e 478 641
e 478 642
e 478 643
e 478 644
e 478 654
e 478 658
e 478 659
e 478 664
e 478 672
e 478 674
e 478 677
e 478 678
e 478 679
e 478 680
e 478 687
e 478 688
e 478 691
e 478 697
e 478 700
e 478 701
e 478 704
e 478 707
e 478 708
e 478 709
e 478 710
e 478 714
e 478 715
e 478 717
e 478 719
e 478 722
e 478 723
e 478 724
e 478 725
e 478 728
e 478 730
e 478 732
e 478 735
e 478 739
e 478 740
e 478 741
e 478 742
e 478 744
e 478 748
e 478 751
e 478 752
e 478 753
e 478 756
e 478 757
e 478 759
e 478 762
e 478 763
e 478 764
e 478 774
e 478 776
e 478 777
e 478 779
e 478 784
e 478 796
e 478 798
e 478 799
e 478 803
e 478 804
e 478 806
e 478 807
e 478 809
e 478 812
e 478 815
e 478 817
e 478 818
e 478 826
e 478 833
e 478 835
e 478 842
e 478 850
e 478 853
e 479 480
e 480 484
e 480 502
e 480 515
e 480 521
e 480 522
e 480 523
e 480 533
e 480 535
e 480 550
e 480 569
e 480 570
e 480 616
e 480 631
e 480 641
e 480 642
e 480 647
e 480 659
e 480 666
e 480 688
e 480 710
e 480 717
e 480 719
e 480 728
e 480 742
e 480 757
e 480 796
e 480 799
e 480 817
e 480 843
e 481 482
e 481 483
e 481 484
e 481 485
e 481 513
e 481 543
e 481 548
e 481 551
e 481 552
e 481 560
e 481 561
e 481 562
e 481 564
e 481 570
e 481 631
e 481 642
e 481 666
e 481 676
e 481 710
e 481 741
e 481 777
e 481 799
e 481 817
e 482 483
e 482 484
e 482 485
e 482 513
e 482 543
e 482 548
e 482 551
e 482 552
e 482 560
e 482 561
e 482 562
e 482 564
e 482 570
e 482 631
e 482 642
e 482 666
e 482 676
e 482 710
e 482 741
e 482 777
e 482 799
e 482 817
e 483 484
e 483 485
e 483 489
e 483 493
e 483 497
e 483 501
e 483 504
e 483 505
e 483 508
e 483 509
e 483 510
e 483 513
e 483 514
e 483 516
e 483 522
e 483 526
e 483 529
e 483 530
e 483 531
e 483 532
e 483 535
e 483 538
e 483 543
e 483 548
e 483 549
e 483 550
e 483 551
e 483 552
e 483 560
e 483 561
e 483 562
e 483 564
e 483 569
e 483 570
e 483 578
e 483 582
e 483 583
e 483 584
e 483 589
e 483 600
e 483 607
e 483 610
e 483 615
e 483 616
e 483 620
e 483 622
e 483 623
e 483 627
e 483 629
e 483 631
e 483 638
e 483 641
e 483 642
e 483 647
e 483 652
e 483 654
e 483 656
e 483 657
e 483 663
e 483 666
e 483 668
e 483 672
e 483 675
e 483 676
e 483 678
e 483 679
e 483 681
e 483 682
e 483 683
e 483 684
e 483 689
e 483 695
e 483 697
e 483 698
e 483 701
e 483 703
e 483 704
e 483 707
e 483 710
e 483 712
e 483 716
e 483 717
e 483 727
e 483 731
e 483 733
e 483 737
e 483 738
e 483 739
e 483 741
e 483 742
e 483 744
e 483 745
e 483 747
e 483 752
e 483 757
e 483 759
e 483 760
e 483 767
e 483 768
e 483 769
e 483 775
e 483 777
e 483 779
e 483 780
e 483 781
e 483 782
e 483 785
e 483 787
e 483 794
e 483 796
e 483 798
e 483 799
e 483 800
e 483 801
e 483 803
e 483 807
e 483 811
e 483 812
e 483 814
e 483 815
e 483 816
e 483 817
e 483 818
e 483 819
e 483 820
e 483 822
e 483 823
e 483 824
e 483 827
e 483 828
e 483 829
e 483 830
e 483 832
e 483 833
e 483 835
e 483 836
e 483 840
e 483 842
e 483 843
e 483 844
e 483 845
e 483 848
e 483 850
e 483 851
e 483 853
e 483 855
e 484 485
e 484 486
e 484 487
e 484 488
e 484 489
e 484 490
e 484 491
e 484 492
e 484 493
e 484 494
e 484 495
e 484 496
e 484 497
e 484 498
e 484 499
e 484 501
e 484 502
e 484 503
e 484 504
e 484 505
e 484 507
e 484 508
e 484 509
e 484 510
e 484 511
e 484 513
e 484 514
e 484 515
e 484 516
e 484 519
e 484 520
e 484 529
e 484 533
e 484 535
e 484 536
e 484 537
e 484 538
e 484 539
e 484 543
e 484 548
e 484 549
e 484 550
e 484 551
e 484 552
e 484 554
e 484 555
e 484 560
e 484 561
e 484 562
e 484 563
e 484 564
e 484 567
e 484 568
e 484 569
e 484 570
e 484 578
e 484 586
e 484 588
e 484 589
e 484 590
e 484 591
e 484 595
e 484 596
e 484 606
e 484 608
e 484 609
e 484 610
e 484 612
e 484 613
e 484 614
e 484 615
e 484 616
e 484 618
e 484 621
e 484 623
e 484 625
e 484 626
e 484 627
e 484 628
e 484 631
e 484 633
e 484 640
e 484 641
e 484 642
e 484 643
e 484 644
e 484 647
e 484 654
e 484 657
e 484 658
e 484 659
e 484 661
e 484 664
e 484 666
e 484 667
e 484 668
e 484 674
e 484 676
e 484 677
e 484 679
e 484 680
e 484 686
e 484 687
e 484 688
e 484 691
e 484 697
e 484 701
e 484 703
e 484 704
e 484 707
e 484 709
e 484 710
e 484 714
e 484 716
e 484 717
e 484 719
e 484 724
e 484 725
e 484 727
e 484 728
e 484 730
e 484 732
e 484 735
e 484 737
e 484 738
e 484 739
e 484 740
e 484 741
e 484 742
e 484 744
e 484 745
e 484 748
e 484 751
e 484 753
e 484 755
e 484 756
e 484 757
e 484 759
e 484 761
e 484 762
e 484 764
e 484 766
e 484 767
e 484 768
e 484 769
e 484 772
e 484 773
e 484 774
e 484 775
e 484 776
e 484 777
e 484 778
e 484 781
e 484 782
e 484 784
e 484 785
e 484 787
e 484 790
e 484 794
e 484 796
e 484 799
e 484 801
e 484 803
e 484 804
e 484 806
e 484 807
e 484 809
e 484 811
e 484 812
e 484 814
e 484 816
e 484 817
e 484 821
e 484 823
e 484 825
e 484 826
e 484 827
e 484 830
e 484 831
e 484 832
e 484 835
e 484 843
e 484 851
e 484 855
e 485 489
e 485 493
e 485 502
e 485 504
e 485 505
e 485 509
e 485 510
e 485 513
e 485 531
e 485 535
e 485 538
e 485 543
e 485 548
e 485 550
e 485 551
e 485 552
e 485 560
e 485 561
e 485 562
e 485 564
e 485 569
e 485 570
e 485 577
e 485 578
e 485 588
e 485 589
e 485 596
e 485 607
e 485 613
e 485 615
e 485 623
e 485 627
e 485 628
e 485 629
e 485 631
e 485 642
e 485 647
e 485 650
e 485 654
e 485 657
e 485 666
e 485 667
e 485 675
e 485 676
e 485 688
e 485 694
e 485 695
e 485 697
e 485 699
e 485 706
e 485 710
e 485 721
e 485 735
e 485 736
e 485 739
e 485 741
e 485 742
e 485 744
e 485 745
e 485 752
e 485 759
e 485 769
e 485 777
e 485 778
e 485 779
e 485 780
e 485 785
e 485 796
e 485 798
e 485 799
e 485 800
e 485 808
e 485 817
e 485 822
e 485 827
e 485 830
e 485 832
e 485 835
e 485 836
e 485 843
e 485 844
e 485 848
e 485 851
e 485 855
e 486 529
e 486 550
e 486 552
e 486 563
e 486 569
e 486 578
e 486 606
e 486 616
e 486 627
e 486 633
e 486 642
e 486 668
e 486 679
e 486 691
e 486 707
e 486 709
e 486 742
e 486 748
e 486 757
e 486 796
e 486 799
e 486 811
e 486 826
e 486 827
e 486 832
e 487 489
e 487 493
e 487 495
e 487 496
e 487 500
e 487 501
e 487 502
e 487 505
e 487 506
e 487 508
e 487 509
e 487 510
e 487 512
e 487 514
e 487 515
e 487 516
e 487 520
e 487 535
e 487 536
e 487 537
e 487 538
e 487 539
e 487 543
e 487 548
e 487 549
e 487 551
e 487 552
e 487 554
e 487 556
e 487 570
e 487 586
e 487 588
e 487 589
e 487 595
e 487 596
e 487 609
e 487 615
e 487 616
e 487 623
e 487 627
e 487 642
e 487 644
e 487 677
e 487 679
e 487 680
e 487 687
e 487 700
e 487 701
e 487 704
e 487 707
e 487 709
e 487 723
e 487 724
e 487 737
e 487 740
e 487 741
e 487 742
e 487 744
e 487 753
e 487 756
e 487 757
e 487 764
e 487 768
e 487 769
e 487 772
e 487 776
e 487 777
e 487 779
e 487 781
e 487 782
e 487 787
e 487 794
e 487 798
e 487 806
e 487 809
e 487 812
e 487 827
e 488 489
e 488 490
e 488 491
e 488 492
e 488 494
e 488 497
e 488 502
e 488 516
e 488 520
e 488 522
e 488 524
e 488 526
e 488 527
e 488 528
e 488 536
e 488 537
e 488 539
e 488 550
e 488 551
e 488 555
e 488 571
e 488 572
e 488 573
e 488 574
e 488 575
e 488 578
e 488 586
e 488 587
e 488 588
e 488 595
e 488 596
e 488 603
e 488 607
e 488 609
e 488 615
e 488 616
e 488 623
e 488 627
e 488 641
e 488 642
e 488 647
e 488 654
e 488 656
e 488 657
e 488 665
e 488 675
e 488 676
e 488 679
e 488 686
e 488 687
e 488 692
e 488 701
e 488 705
e 488 707
e 488 716
e 488 724
e 488 725
e 488 735
e 488 742
e 488 744
e 488 745
e 488 750
e 488 755
e 488 760
e 488 763
e 488 772
e 488 774
e 488 778
e 488 786
e 488 790
e 488 799
e 488 804
e 488 807
e 488 809
e 488 817
e 488 833
e 488 839
e 488 845
e 489 490
e 489 491
e 489 492
e 489 493
e 489 494
e 489 499
e 489 504
e 489 505
e 489 508
e 489 509
e 489 510
e 489 514
e 489 515
e 489 516
e 489 520
e 489 526
e 489 529
e 489 531
e 489 535
e 489 536
e 489 537
e 489 538
e 489 539
e 489 543
e 489 548
e 489 549
e 489 550
e 489 551
e 489 552
e 489 555
e 489 566
e 489 569
e 489 570
e 489 578
e 489 588
e 489 589
e 489 595
e 489 596
e 489 607
e 489 609
e 489 611
e 489 613
e 489 615
e 489 616
e 489 620
e 489 623
e 489 624
e 489 626
e 489 627
e 489 629
e 489 634
e 489 641
e 489 642
e 489 647
e 489 656
e 489 657
e 489 661
e 489 667
e 489 668
e 489 675
e 489 676
e 489 677
e 489 679
e 489 680
e 489 686
e 489 687
e 489 695
e 489 696
e 489 697
e 489 703
e 489 704
e 489 707
e 489 709
e 489 711
e 489 717
e 489 723
e 489 724
e 489 725
e 489 726
e 489 727
e 489 735
e 489 738
e 489 739
e 489 740
e 489 741
e 489 742
e 489 744
e 489 745
e 489 751
e 489 753
e 489 757
e 489 759
e 489 760
e 489 761
e 489 764
e 489 765
e 489 766
e 489 767
e 489 768
e 489 769
e 489 776
e 489 777
e 489 778
e 489 779
e 489 780
e 489 782
e 489 785
e 489 787
e 489 794
e 489 796
e 489 798
e 489 799
e 489 800
e 489 803
e 489 804
e 489 806
e 489 812
e 489 813
e 489 814
e 489 815
e 489 819
e 489 820
e 489 821
e 489 822
e 489 823
e 489 824
e 489 825
e 489 826
e 489 828
e 489 829
e 489 830
e 489 832
e 489 835
e 489 836
e 489 837
e 489 842
e 489 844
e 489 845
e 489 848
e 489 850
e 489 851
e 489 855
e 490 491
e 490 492
e 490 494
e 490 516
e 490 536
e 490 537
e 490 539
e 490 550
e 490 551
e 490 555
e 490 588
e 490 595
e 490 596
e 490 609
e 490 641
e 490 679
e 490 724
e 490 725
e 490 735
e 490 742
e 490 744
e 490 804
e 491 492
e 491 494
e 491 516
e 491 536
e 491 537
e 491 539
e 491 550
e 491 551
e 491 555
e 491 588
e 491 595
e 491 596
e 491 609
e 491 641
e 491 679
e 491 724
e 491 725
e 491 735
e 491 742
e 491 744
e 491 804
e 492 494
e 492 516
e 492 536
e 492 537
e 492 539
e 492 550
e 492 551
e 492 555
e 492 588
e 492 595
e 492 596
e 492 609
e 492 641
e 492 679
e 492 724
e 492 725
e 492 735
e 492 742
e 492 744
e 492 804
e 493 495
e 493 497
e 493 499
e 493 501
e 493 502
e 493 504
e 493 505
e 493 508
e 493 509
e 493 510
e 493 513
e 493 514
e 493 515
e 493 516
e 493 520
e 493 522
e 493 526
e 493 529
e 493 530
e 493 531
e 493 532
e 493 535
e 493 538
e 493 543
e 493 548
e 493 549
e 493 550
e 493 551
e 493 552
e 493 554
e 493 556
e 493 569
e 493 570
e 493 576
e 493 578
e 493 579
e 493 588
e 493 589
e 493 595
e 493 598
e 493 599
e 493 606
e 493 607
e 493 615
e 493 616
e 493 622
e 493 623
e 493 627
e 493 628
e 493 629
e 493 635
e 493 642
e 493 647
e 493 651
e 493 654
e 493 657
e 493 658
e 493 661
e 493 662
e 493 667
e 493 668
e 493 672
e 493 675
e 493 676
e 493 677
e 493 678
e 493 679
e 493 688
e 493 694
e 493 695
e 493 697
e 493 699
e 493 701
e 493 703
e 493 704
e 493 707
e 493 709
e 493 711
e 493 715
e 493 717
e 493 721
e 493 726
e 493 730
e 493 731
e 493 732
e 493 741
e 493 742
e 493 744
e 493 745
e 493 748
e 493 751
e 493 752
e 493 757
e 493 764
e 493 765
e 493 766
e 493 767
e 493 769
e 493 772
e 493 775
e 493 777
e 493 779
e 493 780
e 493 781
e 493 782
e 493 783
e 493 791
e 493 792
e 493 793
e 493 794
e 493 797
e 493 799
e 493 801
e 493 802
e 493 803
e 493 806
e 493 807
e 493 808
e 493 810
e 493 811
e 493 815
e 493 816
e 493 818
e 493 819
e 493 820
e 493 821
e 493 823
e 493 824
e 493 826
e 493 828
e 493 829
e 493 831
e 493 832
e 493 833
e 493 834
e 493 837
e 493 839
e 493 840
e 493 841
e 493 842
e 493 847
e 493 848
e 493 849
e 493 851
e 493 852
e 493 853
e 493 855
e 494 502
e 494 504
e 494 505
e 494 516
e 494 520
e 494 522
e 494 524
e 494 526
e 494 527
e 494 528
e 494 531
e 494 535
e 494 536
e 494 537
e 494 539
e 494 548
e 494 550
e 494 551
e 494 555
e 494 586
e 494 587
e 494 588
e 494 595
e 494 596
e 494 603
e 494 607
e 494 609
e 494 613
e 494 615
e 494 616
e 494 617
e 494 619
e 494 622
e 494 623
e 494 626
e 494 627
e 494 637
e 494 641
e 494 642
e 494 647
e 494 656
e 494 657
e 494 665
e 494 667
e 494 675
e 494 676
e 494 679
e 494 687
e 494 692
e 494 701
e 494 702
e 494 704
e 494 707
e 494 716
e 494 720
e 494 724
e 494 725
e 494 729
e 494 735
e 494 736
e 494 742
e 494 743
e 494 744
e 494 746
e 494 750
e 494 755
e 494 760
e 494 763
e 494 769
e 494 778
e 494 790
e 494 804
e 494 807
e 494 809
e 494 817
e 494 829
e 494 833
e 494 839
e 494 845
e 495 496
e 495 502
e 495 505
e 495 508
e 495 513
e 495 514
e 495 515
e 495 516
e 495 535
e 495 536
e 495 537
e 495 538
e 495 539
e 495 548
e 495 549
e 495 550
e 495 551
e 495 569
e 495 570
e 495 578
e 495 579
e 495 588
e 495 595
e 495 596
e 495 609
e 495 610
e 495 628
e 495 644
e 495 647
e 495 657
e 495 658
e 495 668
e 495 677
e 495 679
e 495 688
e 495 701
e 495 703
e 495 707
e 495 716
e 495 724
e 495 728
e 495 730
e 495 732
e 495 738
e 495 740
e 495 742
e 495 744
e 495 748
e 495 764
e 495 777
e 495 801
e 495 803
e 495 806
e 495 811
e 495 812
e 495 840
e 495 843
e 496 504
e 496 505
e 496 514
e 496 531
e 496 535
e 496 536
e 496 537
e 496 538
e 496 539
e 496 543
e 496 549
e 496 550
e 496 551
e 496 552
e 496 570
e 496 588
e 496 595
e 496 596
e 496 609
e 496 616
e 496 623
e 496 627
e 496 642
e 496 644
e 496 649
e 496 679
e 496 701
e 496 706
e 496 707
e 496 717
e 496 724
e 496 737
e 496 740
e 496 742
e 496 744
e 496 753
e 496 760
e 496 764
e 496 768
e 496 769
e 496 776
e 496 777
e 496 787
e 496 794
e 496 800
e 496 806
e 496 812
e 496 813
e 496 824
e 496 827
e 496 829
e 496 830
e 496 832
e 496 836
e 496 848
e 496 850
e 497 498
e 497 499
e 497 501
e 497 503
e 497 504
e 497 505
e 497 507
e 497 508
e 497 509
e 497 510
e 497 511
e 497 513
e 497 516
e 497 522
e 497 524
e 497 526
e 497 529
e 497 530
e 497 531
e 497 532
e 497 535
e 497 543
e 497 548
e 497 549
e 497 550
e 497 553
e 497 557
e 497 569
e 497 570
e 497 571
e 497 572
e 497 573
e 497 574
e 497 575
e 497 578
e 497 586
e 497 588
e 497 589
e 497 591
e 497 595
e 497 596
e 497 613
e 497 616
e 497 622
e 497 623
e 497 638
e 497 641
e 497 642
e 497 654
e 497 657
e 497 664
e 497 670
e 497 672
e 497 673
e 497 674
e 497 678
e 497 679
e 497 686
e 497 687
e 497 701
e 497 704
e 497 707
e 497 721
e 497 722
e 497 724
e 497 741
e 497 742
e 497 744
e 497 745
e 497 752
e 497 757
e 497 758
e 497 763
e 497 774
e 497 780
e 497 795
e 497 799
e 497 804
e 497 805
e 497 807
e 497 809
e 497 815
e 497 817
e 497 818
e 497 833
e 497 838
e 497 840
e 497 842
e 497 843
e 497 850
e 497 853
e 497 855
e 498 499
e 498 501
e 498 503
e 498 504
e 498 505
e 498 507
e 498 509
e 498 511
e 498 513
e 498 516
e 498 535
e 498 550
e 498 588
e 498 589
e 498 591
e 498 595
e 498 613
e 498 641
e 498 642
e 498 664
e 498 674
e 498 679
e 498 704
e 498 744
e 498 804
e 499 501
e 499 503
e 499 504
e 499 505
e 499 507
e 499 509
e 499 511
e 499 513
e 499 514
e 499 515
e 499 516
e 499 522
e 499 535
e 499 543
e 499 548
e 499 549
e 499 550
e 499 552
e 499 569
e 499 570
e 499 586
e 499 588
e 499 589
e 499 591
e 499 595
e 499 597
e 499 606
e 499 611
e 499 613
e 499 616
e 499 624
e 499 641
e 499 642
e 499 647
e 499 653
e 499 654
e 499 661
e 499 662
e 499 664
e 499 667
e 499 668
e 499 674
e 499 675
e 499 676
e 499 679
e 499 686
e 499 687
e 499 697
e 499 699
e 499 704
e 499 715
e 499 721
e 499 727
e 499 735
e 499 738
e 499 739
e 499 742
e 499 744
e 499 745
e 499 751
e 499 757
e 499 766
e 499 767
e 499 774
e 499 778
e 499 780
e 499 782
e 499 783
e 499 791
e 499 792
e 499 793
e 499 799
e 499 802
e 499 803
e 499 804
e 499 806
e 499 812
e 499 813
e 499 814
e 499 819
e 499 820
e 499 821
e 499 823
e 499 824
e 499 825
e 499 826
e 499 828
e 499 834
e 499 839
e 499 841
e 499 847
e 500 501
e 500 502
e 500 506
e 500 508
e 500 509
e 500 510
e 500 512
e 500 514
e 500 543
e 500 548
e 500 549
e 500 551
e 500 552
e 500 556
e 500 586
e 500 700
e 500 704
e 500 756
e 500 757
e 500 809
e 501 502
e 501 503
e 501 504
e 501 505
e 501 506
e 501 507
e 501 508
e 501 509
e 501 510
e 501 511
e 501 512
e 501 513
e 501 514
e 501 516
e 501 526
e 501 529
e 501 530
e 501 531
e 501 532
e 501 534
e 501 535
e 501 538
e 501 541
e 501 543
e 501 548
e 501 549
e 501 550
e 501 551
e 501 552
e 501 556
e 501 569
e 501 570
e 501 578
e 501 583
e 501 584
e 501 586
e 501 588
e 501 589
e 501 591
e 501 595
e 501 612
e 501 613
e 501 614
e 501 615
e 501 616
e 501 618
e 501 621
e 501 622
e 501 623
e 501 626
e 501 627
e 501 628
e 501 630
e 501 633
e 501 638
e 501 641
e 501 642
e 501 647
e 501 652
e 501 654
e 501 657
e 501 664
e 501 669
e 501 670
e 501 671
e 501 672
e 501 674
e 501 676
e 501 678
e 501 679
e 501 681
e 501 683
e 501 684
e 501 685
e 501 686
e 501 687
e 501 689
e 501 693
e 501 700
e 501 701
e 501 703
e 501 704
e 501 707
e 501 721
e 501 733
e 501 740
e 501 741
e 501 742
e 501 744
e 501 747
e 501 749
e 501 752
e 501 755
e 501 756
e 501 757
e 501 761
e 501 762
e 501 769
e 501 770
e 501 773
e 501 774
e 501 784
e 501 788
e 501 789
e 501 790
e 501 796
e 501 797
e 501 799
e 501 804
e 501 807
e 501 809
e 501 811
e 501 815
e 501 818
e 501 823
e 501 827
e 501 833
e 501 838
e 501 840
e 501 842
e 501 843
e 501 851
e 501 853
e 501 855
e 502 505
e 502 506
e 502 507
e 502 508
e 502 509
e 502 510
e 502 512
e 502 513
e 502 514
e 502 515
e 502 516
e 502 520
e 502 522
e 502 525
e 502 526
e 502 527
e 502 528
e 502 531
e 502 533
e 502 534
e 502 535
e 502 538
e 502 543
e 502 548
e 502 549
e 502 550
e 502 551
e 502 552
e 502 556
e 502 558
e 502 569
e 502 570
e 502 578
e 502 586
e 502 587
e 502 588
e 502 589
e 502 595
e 502 601
e 502 603
e 502 607
e 502 610
e 502 612
e 502 613
e 502 614
e 502 615
e 502 616
e 502 618
e 502 621
e 502 623
e 502 624
e 502 626
e 502 627
e 502 628
e 502 629
e 502 630
e 502 632
e 502 633
e 502 635
e 502 639
e 502 641
e 502 642
e 502 643
e 502 647
e 502 654
e 502 655
e 502 656
e 502 657
e 502 659
e 502 660
e 502 664
e 502 665
e 502 666
e 502 669
e 502 670
e 502 671
e 502 672
e 502 674
e 502 675
e 502 676
e 502 679
e 502 686
e 502 687
e 502 688
e 502 691
e 502 692
e 502 695
e 502 700
e 502 701
e 502 703
e 502 704
e 502 705
e 502 707
e 502 708
e 502 710
e 502 713
e 502 716
e 502 717
e 502 718
e 502 719
e 502 720
e 502 721
e 502 722
e 502 725
e 502 728
e 502 729
e 502 735
e 502 738
e 502 739
e 502 740
e 502 741
e 502 742
e 502 743
e 502 744
e 502 746
e 502 749
e 502 750
e 502 751
e 502 752
e 502 754
e 502 755
e 502 756
e 502 757
e 502 758
e 502 760
e 502 769
e 502 770
e 502 772
e 502 773
e 502 774
e 502 778
e 502 779
e 502 780
e 502 786
e 502 789
e 502 790
e 502 795
e 502 796
e 502 797
e 502 798
e 502 799
e 502 800
e 502 801
e 502 804
e 502 805
e 502 807
e 502 809
e 502 810
e 502 812
e 502 817
e 502 824
e 502 833
e 502 838
e 502 839
e 502 841
e 502 843
e 502 844
e 502 845
e 502 846
e 502 848
e 502 849
e 502 852
e 502 853
e 503 504
e 503 505
e 503 507
e 503 509
e 503 511
e 503 513
e 503 516
e 503 535
e 503 550
e 503 588
e 503 589
e 503 591
e 503 595
e 503 613
e 503 641
e 503 642
e 503 664
e 503 674
e 503 679
e 503 704
e 503 744
e 503 804
e 504 505
e 504 507
e 504 508
e 504 509
e 504 510
e 504 511
e 504 513
e 504 516
e 504 522
e 504 529
e 504 531
e 504 535
e 504 538
e 504 543
e 504 548
e 504 549
e 504 550
e 504 551
e 504 552
e 504 569
e 504 570
e 504 576
e 504 578
e 504 586
e 504 588
e 504 589
e 504 591
e 504 595
e 504 596
e 504 607
e 504 610
e 504 613
e 504 615
e 504 616
e 504 617
e 504 619
e 504 620
e 504 622
e 504 623
e 504 624
e 504 626
e 504 627
e 504 629
e 504 641
e 504 642
e 504 647
e 504 649
e 504 656
e 504 657
e 504 664
e 504 668
e 504 674
e 504 675
e 504 676
e 504 679
e 504 688
e 504 692
e 504 695
e 504 704
e 504 706
e 504 707
e 504 717
e 504 731
e 504 736
e 504 738
e 504 739
e 504 741
e 504 742
e 504 744
e 504 745
e 504 752
e 504 757
e 504 759
e 504 760
e 504 763
e 504 769
e 504 776
e 504 777
e 504 778
e 504 779
e 504 780
e 504 781
e 504 782
e 504 785
e 504 787
e 504 796
e 504 798
e 504 799
e 504 800
e 504 803
e 504 804
e 504 807
e 504 809
e 504 811
e 504 813
e 504 817
e 504 819
e 504 820
e 504 822
e 504 824
e 504 826
e 504 827
e 504 828
e 504 829
e 504 830
e 504 832
e 504 833
e 504 835
e 504 836
e 504 839
e 504 840
e 504 844
e 504 845
e 504 848
e 504 850
e 504 851
e 504 855
e 505 507
e 505 508
e 505 509
e 505 510
e 505 511
e 505 513
e 505 515
e 505 516
e 505 522
e 505 531
e 505 535
e 505 538
e 505 543
e 505 548
e 505 550
e 505 551
e 505 552
e 505 569
e 505 570
e 505 577
e 505 578
e 505 579
e 505 586
e 505 588
e 505 589
e 505 591
e 505 593
e 505 594
e 505 595
e 505 596
e 505 606
e 505 607
e 505 610
e 505 613
e 505 615
e 505 616
e 505 617
e 505 619
e 505 622
e 505 623
e 505 626
e 505 627
e 505 628
e 505 629
e 505 641
e 505 642
e 505 647
e 505 650
e 505 654
e 505 657
e 505 658
e 505 662
e 505 664
e 505 667
e 505 668
e 505 674
e 505 675
e 505 676
e 505 677
e 505 679
e 505 687
e 505 688
e 505 692
e 505 694
e 505 697
e 505 699
e 505 703
e 505 704
e 505 706
e 505 707
e 505 715
e 505 716
e 505 721
e 505 728
e 505 730
e 505 732
e 505 735
e 505 736
e 505 737
e 505 738
e 505 739
e 505 740
e 505 741
e 505 742
e 505 744
e 505 745
e 505 748
e 505 753
e 505 761
e 505 763
e 505 764
e 505 768
e 505 769
e 505 776
e 505 778
e 505 780
e 505 782
e 505 783
e 505 785
e 505 787
e 505 791
e 505 792
e 505 793
e 505 794
e 505 799
e 505 801
e 505 802
e 505 803
e 505 804
e 505 807
e 505 808
e 505 809
e 505 811
e 505 813
e 505 817
e 505 819
e 505 820
e 505 822
e 505 827
e 505 829
e 505 830
e 505 835
e 505 836
e 505 839
e 505 840
e 505 841
e 505 843
e 505 844
e 505 847
e 505 848
e 505 851
e 505 855
e 506 508
e 506 509
e 506 510
e 506 512
e 506 514
e 506 543
e 506 548
e 506 549
e 506 551
e 506 552
e 506 556
e 506 586
e 506 700
e 506 704
e 506 756
e 506 757
e 506 809
e 507 508
e 507 509
e 507 511
e 507 513
e 507 516
e 507 519
e 507 526
e 507 535
e 507 541
e 507 542
e 507 543
e 507 548
e 507 549
e 507 550
e 507 551
e 507 552
e 507 556
e 507 558
e 507 567
e 507 568
e 507 569
e 507 570
e 507 578
e 507 586
e 507 588
e 507 589
e 507 590
e 507 591
e 507 595
e 507 596
e 507 602
e 507 608
e 507 609
e 507 613
e 507 616
e 507 625
e 507 626
e 507 627
e 507 630
e 507 632
e 507 633
e 507 640
e 507 641
e 507 642
e 507 643
e 507 644
e 507 647
e 507 654
e 507 657
e 507 659
e 507 660
e 507 664
e 507 670
e 507 671
e 507 672
e 507 674
e 507 676
e 507 679
e 507 680
e 507 687
e 507 688
e 507 695
e 507 697
e 507 700
e 507 701
e 507 704
e 507 707
e 507 708
e 507 710
e 507 714
e 507 715
e 507 716
e 507 717
e 507 718
e 507 719
e 507 720
e 507 721
e 507 723
e 507 724
e 507 728
e 507 729
e 507 739
e 507 740
e 507 742
e 507 744
e 507 751
e 507 756
e 507 757
e 507 758
e 507 759
e 507 762
e 507 763
e 507 769
e 507 770
e 507 774
e 507 780
e 507 784
e 507 789
e 507 795
e 507 796
e 507 797
e 507 799
e 507 804
e 507 805
e 507 807
e 507 809
e 507 817
e 507 833
e 507 838
e 507 845
e 507 846
e 507 849
e 507 852
e 507 853
e 508 509
e 508 510
e 508 512
e 508 513
e 508 514
e 508 516
e 508 522
e 508 526
e 508 529
e 508 530
e 508 531
e 508 532
e 508 535
e 508 538
e 508 541
e 508 543
e 508 548
e 508 549
e 508 550
e 508 551
e 508 552
e 508 556
e 508 566
e 508 567
e 508 568
e 508 569
e 508 570
e 508 578
e 508 579
e 508 585
e 508 586
e 508 588
e 508 589
e 508 595
e 508 607
e 508 610
e 508 613
e 508 615
e 508 616
e 508 622
e 508 623
e 508 624
e 508 626
e 508 627
e 508 628
e 508 633
e 508 636
e 508 640
e 508 641
e 508 642
e 508 643
e 508 647
e 508 654
e 508 657
e 508 658
e 508 661
e 508 664
e 508 668
e 508 670
e 508 672
e 508 673
e 508 674
e 508 676
e 508 677
e 508 678
e 508 679
e 508 682
e 508 685
e 508 688
e 508 690
e 508 693
e 508 698
e 508 699
e 508 700
e 508 701
e 508 703
e 508 704
e 508 707
e 508 717
e 508 719
e 508 721
e 508 730
e 508 732
e 508 734
e 508 738
e 508 739
e 508 741
e 508 742
e 508 744
e 508 745
e 508 748
e 508 749
e 508 751
e 508 752
e 508 756
e 508 757
e 508 761
e 508 762
e 508 768
e 508 769
e 508 770
e 508 771
e 508 773
e 508 774
e 508 781
e 508 782
e 508 784
e 508 788
e 508 789
e 508 794
e 508 797
e 508 798
e 508 799
e 508 800
e 508 801
e 508 803
e 508 804
e 508 807
e 508 808
e 508 809
e 508 810
e 508 811
e 508 813
e 508 815
e 508 818
e 508 821
e 508 823
e 508 824
e 508 827
e 508 828
e 508 829
e 508 830
e 508 832
e 508 833
e 508 834
e 508 835
e 508 836
e 508 837
e 508 838
e 508 840
e 508 842
e 508 844
e 508 848
e 508 850
e 508 851
e 508 852
e 508 853
e 508 855
e 509 510
e 509 511
e 509 512
e 509 513
e 509 514
e 509 516
e 509 522
e 509 526
e 509 529
e 509 531
e 509 534
e 509 535
e 509 538
e 509 540
e 509 543
e 509 548
e 509 549
e 509 550
e 509 551
e 509 552
e 509 556
e 509 569
e 509 570
e 509 578
e 509 585
e 509 586
e 509 588
e 509 589
e 509 591
e 509 595
e 509 598
e 509 599
e 509 607
e 509 613
e 509 615
e 509 616
e 509 623
e 509 627
e 509 628
e 509 629
e 509 630
e 509 633
e 509 635
e 509 636
e 509 640
e 509 641
e 509 642
e 509 647
e 509 653
e 509 654
e 509 655
e 509 657
e 509 661
e 509 664
e 509 667
e 509 668
e 509 669
e 509 670
e 509 671
e 509 672
e 509 673
e 509 674
e 509 676
e 509 679
e 509 682
e 509 685
e 509 688
e 509 690
e 509 693
e 509 694
e 509 695
e 509 697
e 509 699
e 509 700
e 509 704
e 509 707
e 509 709
e 509 711
e 509 715
e 509 721
e 509 726
e 509 732
e 509 734
e 509 741
e 509 742
e 509 744
e 509 745
e 509 748
e 509 749
e 509 751
e 509 752
e 509 754
e 509 756
e 509 757
e 509 765
e 509 766
e 509 769
e 509 770
e 509 771
e 509 773
e 509 774
e 509 775
e 509 779
e 509 780
e 509 782
e 509 783
e 509 788
e 509 796
e 509 797
e 509 798
e 509 799
e 509 800
e 509 801
e 509 803
e 509 804
e 509 807
e 509 808
e 509 809
e 509 810
e 509 812
e 509 815
e 509 818
e 509 823
e 509 824
e 509 825
e 509 827
e 509 831
e 509 833
e 509 834
e 509 835
e 509 836
e 509 837
e 509 838
e 509 840
e 509 842
e 509 843
e 509 844
e 509 847
e 509 848
e 509 849
e 509 851
e 509 852
e 509 855
e 510 512
e 510 514
e 510 524
e 510 526
e 510 529
e 510 531
e 510 535
e 510 538
e 510 543
e 510 548
e 510 549
e 510 550
e 510 551
e 510 552
e 510 553
e 510 556
e 510 569
e 510 570
e 510 577
e 510 578
e 510 586
e 510 588
e 510 589
e 510 595
e 510 596
e 510 607
e 510 613
e 510 615
e 510 623
e 510 627
e 510 629
e 510 641
e 510 642
e 510 647
e 510 650
e 510 657
e 510 661
e 510 670
e 510 673
e 510 675
e 510 676
e 510 695
e 510 700
e 510 701
e 510 704
e 510 706
e 510 709
e 510 711
e 510 721
e 510 726
e 510 732
e 510 735
e 510 736
e 510 739
e 510 741
e 510 742
e 510 744
e 510 745
e 510 748
e 510 751
e 510 756
e 510 757
e 510 758
e 510 759
e 510 765
e 510 766
e 510 769
e 510 775
e 510 778
e 510 780
e 510 785
e 510 795
e 510 799
e 510 803
e 510 805
e 510 808
e 510 809
e 510 810
e 510 815
e 510 816
e 510 822
e 510 827
e 510 830
e 510 831
e 510 834
e 510 835
e 510 836
e 510 837
e 510 838
e 510 840
e 510 842
e 510 843
e 510 844
e 510 848
e 510 851
e 510 853
e 510 855
e 511 513
e 511 516
e 511 535
e 511 550
e 511 588
e 511 589
e 511 591
e 511 595
e 511 613
e 511 641
e 511 642
e 511 664
e 511 674
e 511 679
e 511 704
e 511 744
e 511 804
e 512 514
e 512 543
e 512 548
e 512 549
e 512 551
e 512 552
e 512 556
e 512 586
e 512 700
e 512 704
e 512 756
e 512 757
e 512 809
e 513 516
e 513 522
e 513 525
e 513 526
e 513 529
e 513 531
e 513 534
e 513 535
e 513 538
e 513 543
e 513 544
e 513 545
e 513 546
e 513 547
e 513 548
e 513 549
e 513 550
e 513 551
e 513 552
e 513 556
e 513 558
e 513 560
e 513 561
e 513 562
e 513 563
e 513 564
e 513 570
e 513 578
e 513 579
e 513 588
e 513 589
e 513 591
e 513 595
e 513 606
e 513 613
e 513 616
e 513 624
e 513 626
e 513 627
e 513 628
e 513 629
e 513 630
e 513 631
e 513 633
e 513 641
e 513 642
e 513 647
e 513 654
e 513 657
e 513 658
e 513 660
e 513 664
e 513 666
e 513 667
e 513 668
e 513 669
e 513 670
e 513 672
e 513 674
e 513 676
e 513 677
e 513 679
e 513 687
e 513 688
e 513 691
e 513 694
e 513 695
e 513 697
e 513 699
e 513 703
e 513 704
e 513 707
e 513 709
e 513 710
e 513 720
e 513 721
e 513 722
e 513 729
e 513 730
e 513 732
e 513 740
e 513 741
e 513 742
e 513 744
e 513 748
e 513 751
e 513 753
e 513 757
e 513 758
e 513 759
e 513 762
e 513 765
e 513 769
e 513 770
e 513 774
e 513 777
e 513 780
e 513 784
e 513 795
e 513 796
e 513 797
e 513 799
e 513 801
e 513 803
e 513 804
e 513 805
e 513 807
e 513 808
e 513 811
e 513 817
e 513 826
e 513 833
e 513 838
e 513 840
e 513 845
e 513 846
e 513 848
e 513 849
e 513 852
e 513 853
e 514 516
e 514 526
e 514 535
e 514 536
e 514 537
e 514 538
e 514 539
e 514 543
e 514 548
e 514 549
e 514 550
e 514 551
e 514 552
e 514 556
e 514 569
e 514 570
e 514 586
e 514 588
e 514 595
e 514 596
e 514 598
e 514 599
e 514 609
e 514 610
e 514 611
e 514 615
e 514 616
e 514 624
e 514 627
e 514 644
e 514 661
e 514 679
e 514 687
e 514 697
e 514 700
e 514 701
e 514 704
e 514 724
e 514 726
e 514 727
e 514 737
e 514 738
e 514 740
e 514 742
e 514 744
e 514 745
e 514 756
e 514 757
e 514 759
e 514 764
e 514 768
e 514 769
e 514 775
e 514 777
e 514 778
e 514 779
e 514 780
e 514 781
e 514 782
e 514 794
e 514 796
e 514 806
e 514 809
e 514 812
e 514 813
e 514 814
e 514 825
e 514 826
e 514 828
e 514 830
e 514 831
e 514 837
e 514 842
e 514 852
e 515 516
e 515 520
e 515 529
e 515 533
e 515 535
e 515 538
e 515 543
e 515 548
e 515 549
e 515 550
e 515 551
e 515 552
e 515 554
e 515 555
e 515 569
e 515 570
e 515 588
e 515 589
e 515 595
e 515 610
e 515 613
e 515 615
e 515 616
e 515 625
e 515 627
e 515 634
e 515 639
e 515 641
e 515 642
e 515 647
e 515 651
e 515 657
e 515 659
e 515 661
e 515 666
e 515 667
e 515 668
e 515 677
e 515 679
e 515 686
e 515 688
e 515 695
e 515 696
e 515 701
e 515 703
e 515 704
e 515 707
e 515 709
e 515 710
e 515 716
e 515 717
e 515 719
e 515 725
e 515 728
e 515 735
e 515 738
e 515 739
e 515 740
e 515 741
e 515 742
e 515 744
e 515 746
e 515 751
e 515 753
e 515 757
e 515 759
e 515 764
e 515 765
e 515 766
e 515 767
e 515 769
e 515 772
e 515 773
e 515 776
e 515 777
e 515 778
e 515 779
e 515 781
e 515 782
e 515 794
e 515 796
e 515 799
e 515 801
e 515 804
e 515 806
e 515 812
e 515 814
e 515 816
e 515 817
e 515 821
e 515 823
e 515 825
e 515 826
e 515 828
e 515 831
e 515 833
e 515 835
e 515 843
e 515 852
e 516 520
e 516 522
e 516 526
e 516 529
e 516 531
e 516 535
e 516 536
e 516 537
e 516 539
e 516 542
e 516 543
e 516 548
e 516 549
e 516 550
e 516 551
e 516 552
e 516 555
e 516 567
e 516 568
e 516 569
e 516 570
e 516 571
e 516 572
e 516 573
e 516 574
e 516 575
e 516 578
e 516 586
e 516 588
e 516 589
e 516 591
e 516 595
e 516 596
e 516 598
e 516 599
e 516 602
e 516 606
e 516 607
e 516 608
e 516 609
e 516 610
e 516 611
e 516 612
e 516 613
e 516 614
e 516 615
e 516 616
e 516 617
e 516 618
e 516 619
e 516 621
e 516 622
e 516 623
e 516 624
e 516 625
e 516 626
e 516 627
e 516 640
e 516 641
e 516 642
e 516 643
e 516 644
e 516 645
e 516 646
e 516 647
e 516 648
e 516 654
e 516 657
e 516 661
e 516 662
e 516 664
e 516 674
e 516 675
e 516 676
e 516 677
e 516 679
e 516 680
e 516 686
e 516 687
e 516 688
e 516 692
e 516 697
e 516 699
e 516 701
e 516 703
e 516 704
e 516 705
e 516 707
e 516 708
e 516 709
e 516 713
e 516 714
e 516 715
e 516 716
e 516 717
e 516 718
e 516 719
e 516 721
e 516 723
e 516 724
e 516 725
e 516 726
e 516 727
e 516 728
e 516 735
e 516 736
e 516 737
e 516 738
e 516 739
e 516 740
e 516 741
e 516 742
e 516 744
e 516 745
e 516 751
e 516 753
e 516 754
e 516 755
e 516 756
e 516 757
e 516 759
e 516 762
e 516 763
e 516 764
e 516 768
e 516 769
e 516 772
e 516 773
e 516 774
e 516 775
e 516 776
e 516 777
e 516 778
e 516 779
e 516 780
e 516 781
e 516 782
e 516 783
e 516 784
e 516 786
e 516 789
e 516 790
e 516 791
e 516 792
e 516 793
e 516 794
e 516 796
e 516 798
e 516 799
e 516 801
e 516 802
e 516 803
e 516 804
e 516 806
e 516 807
e 516 809
e 516 812
e 516 813
e 516 814
e 516 817
e 516 819
e 516 820
e 516 821
e 516 824
e 516 825
e 516 826
e 516 828
e 516 829
e 516 830
e 516 831
e 516 833
e 516 834
e 516 835
e 516 837
e 516 839
e 516 841
e 516 842
e 516 843
e 516 845
e 516 846
e 516 847
e 516 852
e 516 853
e 517 526
e 517 548
e 517 569
e 517 570
e 517 590
e 517 595
e 517 602
e 517 610
e 517 616
e 517 647
e 517 661
e 517 687
e 517 701
e 517 702
e 517 704
e 517 705
e 517 708
e 517 716
e 517 744
e 517 778
e 517 779
e 517 796
e 517 833
e 518 548
e 518 551
e 518 552
e 518 560
e 518 562
e 518 570
e 518 595
e 518 629
e 518 642
e 518 666
e 518 710
e 518 799
e 519 549
e 519 570
e 519 590
e 519 596
e 519 608
e 519 609
e 519 616
e 519 625
e 519 627
e 519 680
e 519 687
e 519 701
e 519 704
e 519 714
e 519 716
e 519 724
e 519 740
e 519 744
e 520 522
e 520 524
e 520 526
e 520 527
e 520 528
e 520 529
e 520 535
e 520 538
e 520 543
e 520 548
e 520 549
e 520 550
e 520 551
e 520 552
e 520 554
e 520 555
e 520 569
e 520 570
e 520 586
e 520 587
e 520 588
e 520 589
e 520 595
e 520 603
e 520 607
e 520 610
e 520 613
e 520 615
e 520 616
e 520 625
e 520 627
e 520 637
e 520 639
e 520 642
e 520 644
e 520 647
e 520 656
e 520 657
e 520 661
e 520 665
e 520 675
e 520 676
e 520 677
e 520 679
e 520 687
e 520 692
e 520 695
e 520 697
e 520 701
e 520 704
e 520 707
e 520 709
e 520 715
e 520 716
e 520 718
e 520 720
e 520 723
e 520 725
e 520 729
e 520 735
e 520 740
e 520 741
e 520 742
e 520 743
e 520 744
e 520 746
e 520 750
e 520 751
e 520 753
e 520 755
e 520 757
e 520 759
e 520 760
e 520 764
e 520 769
e 520 772
e 520 773
e 520 776
e 520 777
e 520 778
e 520 779
e 520 781
e 520 782
e 520 786
e 520 789
e 520 790
e 520 794
e 520 796
e 520 804
e 520 806
e 520 812
e 520 826
e 520 831
e 520 833
e 520 835
e 520 839
e 520 845
e 520 846
e 520 849
e 520 853
e 521 522
e 521 523
e 521 550
e 521 569
e 521 570
e 521 616
e 521 631
e 521 641
e 521 659
e 521 666
e 521 710
e 521 717
e 521 719
e 521 742
e 521 757
e 521 796
e 521 799
e 521 817
e 522 523
e 522 524
e 522 525
e 522 526
e 522 527
e 522 528
e 522 529
e 522 531
e 522 535
e 522 538
e 522 543
e 522 544
e 522 545
e 522 546
e 522 547
e 522 548
e 522 549
e 522 550
e 522 551
e 522 552
e 522 558
e 522 569
e 522 570
e 522 571
e 522 572
e 522 573
e 522 574
e 522 575
e 522 578
e 522 582
e 522 586
e 522 587
e 522 588
e 522 595
e 522 596
e 522 597
e 522 603
e 522 606
e 522 607
e 522 613
e 522 615
e 522 616
e 522 617
e 522 619
e 522 622
e 522 623
e 522 624
e 522 626
e 522 627
e 522 628
e 522 629
e 522 631
e 522 633
e 522 636
e 522 637
e 522 641
e 522 642
e 522 647
e 522 653
e 522 654
e 522 656
e 522 657
e 522 659
e 522 660
e 522 661
e 522 662
e 522 665
e 522 666
e 522 667
e 522 669
e 522 672
e 522 674
e 522 675
e 522 676
e 522 679
e 522 686
e 522 687
e 522 690
e 522 691
e 522 692
e 522 695
e 522 698
e 522 699
e 522 701
e 522 704
e 522 707
e 522 710
e 522 715
e 522 716
e 522 717
e 522 719
e 522 721
e 522 722
e 522 724
e 522 725
e 522 731
e 522 734
e 522 735
e 522 736
e 522 739
e 522 741
e 522 742
e 522 744
e 522 745
e 522 750
e 522 751
e 522 754
e 522 755
e 522 757
e 522 760
e 522 763
e 522 765
e 522 767
e 522 769
e 522 770
e 522 771
e 522 774
e 522 778
e 522 779
e 522 780
e 522 782
e 522 783
e 522 788
e 522 790
e 522 791
e 522 792
e 522 793
e 522 796
e 522 798
e 522 799
e 522 801
e 522 802
e 522 803
e 522 804
e 522 805
e 522 807
e 522 808
e 522 809
e 522 810
e 522 814
e 522 815
e 522 816
e 522 817
e 522 818
e 522 819
e 522 820
e 522 821
e 522 823
e 522 824
e 522 825
e 522 826
e 522 828
e 522 829
e 522 831
e 522 834
e 522 837
e 522 839
e 522 841
e 522 843
e 522 844
e 522 845
e 522 846
e 522 847
e 522 848
e 522 850
e 522 852
e 523 550
e 523 569
e 523 570
e 523 616
e 523 631
e 523 641
e 523 659
e 523 666
e 523 710
e 523 717
e 523 719
e 523 742
e 523 757
e 523 796
e 523 799
e 523 817
e 524 526
e 524 535
e 524 543
e 524 548
e 524 549
e 524 551
e 524 553
e 524 558
e 524 586
e 524 587
e 524 589
e 524 595
e 524 603
e 524 604
e 524 615
e 524 633
e 524 637
e 524 642
e 524 657
e 524 665
e 524 667
e 524 670
e 524 673
e 524 687
e 524 692
e 524 701
e 524 702
e 524 704
e 524 705
e 524 716
e 524 720
e 524 721
e 524 729
e 524 742
e 524 743
e 524 744
e 524 746
e 524 750
e 524 758
e 524 769
e 524 772
e 524 774
e 524 778
e 524 780
e 524 786
e 524 795
e 524 804
e 524 805
e 524 833
e 524 838
e 524 839
e 524 840
e 524 843
e 524 853
e 524 855
e 525 543
e 525 548
e 525 552
e 525 558
e 525 570
e 525 578
e 525 595
e 525 616
e 525 624
e 525 628
e 525 629
e 525 633
e 525 642
e 525 654
e 525 660
e 525 672
e 525 676
e 525 687
e 525 691
e 525 707
e 525 722
e 525 796
e 525 805
e 525 846
e 526 527
e 526 528
e 526 529
e 526 530
e 526 531
e 526 532
e 526 538
e 526 543
e 526 548
e 526 549
e 526 550
e 526 552
e 526 556
e 526 557
e 526 565
e 526 569
e 526 570
e 526 586
e 526 587
e 526 588
e 526 590
e 526 592
e 526 595
e 526 598
e 526 599
e 526 602
e 526 603
e 526 607
e 526 610
e 526 613
e 526 615
e 526 616
e 526 622
e 526 623
e 526 627
e 526 629
e 526 630
e 526 632
e 526 635
e 526 637
e 526 638
e 526 641
e 526 642
e 526 647
e 526 656
e 526 657
e 526 661
e 526 665
e 526 667
e 526 670
e 526 671
e 526 672
e 526 674
e 526 675
e 526 676
e 526 678
e 526 679
e 526 687
e 526 692
e 526 695
e 526 698
e 526 701
e 526 702
e 526 704
e 526 705
e 526 707
e 526 708
e 526 709
e 526 711
e 526 715
e 526 716
e 526 720
e 526 721
e 526 722
e 526 725
e 526 726
e 526 729
e 526 741
e 526 742
e 526 744
e 526 745
e 526 750
e 526 751
e 526 752
e 526 755
e 526 757
e 526 760
e 526 762
e 526 765
e 526 769
e 526 770
e 526 775
e 526 778
e 526 779
e 526 780
e 526 782
e 526 783
e 526 784
e 526 790
e 526 796
e 526 797
e 526 798
e 526 799
e 526 804
e 526 807
e 526 810
e 526 815
e 526 818
e 526 821
e 526 824
e 526 831
e 526 833
e 526 834
e 526 837
e 526 839
e 526 842
e 526 844
e 526 845
e 526 846
e 526 847
e 526 849
e 526 850
e 526 851
e 526 852
e 526 853
e 526 855
e 527 528
e 527 587
e 527 603
e 527 607
e 527 615
e 527 627
e 527 642
e 527 647
e 527 656
e 527 657
e 527 665
e 527 675
e 527 676
e 527 692
e 527 701
e 527 716
e 527 725
e 527 744
e 527 755
e 527 760
e 527 778
e 527 790
e 527 839
e 527 845
e 528 587
e 528 603
e 528 607
e 528 615
e 528 627
e 528 642
e 528 647
e 528 656
e 528 657
e 528 665
e 528 675
e 528 676
e 528 692
e 528 701
e 528 716
e 528 725
e 528 744
e 528 755
e 528 760
e 528 778
e 528 790
e 528 839
e 528 845
e 529 530
e 529 531
e 529 532
e 529 535
e 529 538
e 529 548
e 529 549
e 529 550
e 529 551
e 529 552
e 529 563
e 529 569
e 529 570
e 529 576
e 529 578
e 529 589
e 529 606
e 529 613
e 529 616
e 529 622
e 529 623
e 529 627
e 529 628
e 529 633
e 529 636
e 529 642
e 529 647
e 529 653
e 529 658
e 529 663
e 529 668
e 529 672
e 529 675
e 529 676
e 529 677
e 529 678
e 529 679
e 529 688
e 529 690
e 529 691
e 529 695
e 529 699
e 529 701
e 529 704
e 529 707
e 529 709
e 529 711
e 529 712
e 529 716
e 529 717
e 529 721
e 529 730
e 529 731
e 529 732
e 529 734
e 529 740
e 529 741
e 529 742
e 529 744
e 529 745
e 529 748
e 529 752
e 529 753
e 529 754
e 529 757
e 529 759
e 529 766
e 529 769
e 529 770
e 529 771
e 529 776
e 529 777
e 529 781
e 529 782
e 529 788
e 529 796
e 529 799
e 529 801
e 529 803
e 529 807
e 529 808
e 529 810
e 529 811
e 529 815
e 529 818
e 529 822
e 529 824
e 529 825
e 529 826
e 529 827
e 529 829
e 529 832
e 529 833
e 529 834
e 529 835
e 529 840
e 529 842
e 529 847
e 529 850
e 529 851
e 529 853
e 529 855
e 530 531
e 530 532
e 530 569
e 530 570
e 530 622
e 530 672
e 530 678
e 530 679
e 530 701
e 530 707
e 530 741
e 530 752
e 530 799
e 530 815
e 530 818
e 530 833
e 530 842
e 530 853
e 531 532
e 531 534
e 531 535
e 531 538
e 531 543
e 531 548
e 531 549
e 531 550
e 531 551
e 531 552
e 531 556
e 531 557
e 531 565
e 531 569
e 531 570
e 531 576
e 531 578
e 531 586
e 531 588
e 531 589
e 531 596
e 531 607
e 531 610
e 531 613
e 531 615
e 531 616
e 531 617
e 531 619
e 531 620
e 531 622
e 531 623
e 531 624
e 531 626
e 531 627
e 531 628
e 531 629
e 531 630
e 531 633
e 531 635
e 531 638
e 531 642
e 531 647
e 531 649
e 531 654
e 531 656
e 531 657
e 531 668
e 531 669
e 531 672
e 531 674
e 531 675
e 531 676
e 531 678
e 531 679
e 531 687
e 531 688
e 531 692
e 531 695
e 531 701
e 531 706
e 531 707
e 531 717
e 531 722
e 531 731
e 531 736
e 531 738
e 531 739
e 531 741
e 531 742
e 531 744
e 531 745
e 531 751
e 531 752
e 531 757
e 531 759
e 531 760
e 531 763
e 531 769
e 531 770
e 531 774
e 531 776
e 531 777
e 531 778
e 531 779
e 531 780
e 531 781
e 531 782
e 531 785
e 531 787
e 531 796
e 531 797
e 531 798
e 531 799
e 531 800
e 531 803
e 531 807
e 531 809
e 531 810
e 531 811
e 531 813
e 531 815
e 531 817
e 531 818
e 531 819
e 531 820
e 531 822
e 531 824
e 531 826
e 531 827
e 531 828
e 531 829
e 531 830
e 531 832
e 531 833
e 531 835
e 531 836
e 531 837
e 531 839
e 531 840
e 531 842
e 531 844
e 531 845
e 531 848
e 531 849
e 531 850
e 531 851
e 531 852
e 531 853
e 531 855
e 532 569
e 532 570
e 532 622
e 532 672
e 532 678
e 532 679
e 532 701
e 532 707
e 532 741
e 532 752
e 532 799
e 532 815
e 532 818
e 532 833
e 532 842
e 532 853
e 533 535
e 533 550
e 533 569
e 533 570
e 533 641
e 533 642
e 533 647
e 533 659
e 533 666
e 533 688
e 533 710
e 533 717
e 533 719
e 533 728
e 533 742
e 533 757
e 533 796
e 533 799
e 533 817
e 533 843
e 534 535
e 534 543
e 534 548
e 534 551
e 534 552
e 534 570
e 534 578
e 534 630
e 534 633
e 534 642
e 534 647
e 534 669
e 534 674
e 534 757
e 534 769
e 534 774
e 534 797
e 534 807
e 535 538
e 535 541
e 535 542
e 535 543
e 535 548
e 535 549
e 535 550
e 535 551
e 535 552
e 535 553
e 535 554
e 535 555
e 535 556
e 535 558
e 535 567
e 535 568
e 535 569
e 535 570
e 535 578
e 535 580
e 535 581
e 535 582
e 535 586
e 535 588
e 535 589
e 535 591
e 535 595
e 535 596
e 535 597
e 535 602
e 535 604
e 535 607
e 535 608
e 535 610
e 535 613
e 535 615
e 535 616
e 535 623
e 535 625
e 535 626
e 535 627
e 535 628
e 535 629
e 535 630
e 535 633
e 535 634
e 535 639
e 535 640
e 535 641
e 535 642
e 535 643
e 535 644
e 535 647
e 535 653
e 535 654
e 535 657
e 535 659
e 535 660
e 535 661
e 535 663
e 535 664
e 535 665
e 535 666
e 535 667
e 535 668
e 535 669
e 535 670
e 535 671
e 535 672
e 535 673
e 535 674
e 535 676
e 535 677
e 535 679
e 535 686
e 535 688
e 535 694
e 535 695
e 535 696
e 535 697
e 535 698
e 535 699
e 535 700
e 535 701
e 535 702
e 535 703
e 535 704
e 535 707
e 535 708
e 535 709
e 535 710
e 535 712
e 535 714
e 535 715
e 535 716
e 535 717
e 535 718
e 535 719
e 535 720
e 535 721
e 535 723
e 535 724
e 535 725
e 535 727
e 535 728
e 535 729
e 535 730
e 535 731
e 535 734
e 535 735
e 535 737
e 535 738
e 535 739
e 535 740
e 535 741
e 535 742
e 535 743
e 535 744
e 535 745
e 535 746
e 535 747
e 535 749
e 535 750
e 535 751
e 535 752
e 535 753
e 535 754
e 535 756
e 535 757
e 535 758
e 535 759
e 535 761
e 535 762
e 535 764
e 535 765
e 535 766
e 535 767
e 535 768
e 535 769
e 535 770
e 535 771
e 535 772
e 535 773
e 535 774
e 535 775
e 535 776
e 535 777
e 535 778
e 535 779
e 535 780
e 535 781
e 535 782
e 535 783
e 535 784
e 535 785
e 535 786
e 535 787
e 535 789
e 535 790
e 535 794
e 535 795
e 535 796
e 535 797
e 535 798
e 535 799
e 535 800
e 535 801
e 535 804
e 535 805
e 535 806
e 535 807
e 535 808
e 535 809
e 535 811
e 535 812
e 535 814
e 535 815
e 535 816
e 535 817
e 535 818
e 535 821
e 535 823
e 535 824
e 535 825
e 535 826
e 535 827
e 535 828
e 535 830
e 535 831
e 535 833
e 535 834
e 535 835
e 535 836
e 535 838
e 535 840
e 535 843
e 535 844
e 535 845
e 535 846
e 535 847
e 535 848
e 535 849
e 535 851
e 535 853
e 535 855
e 536 537
e 536 538
e 536 539
e 536 549
e 536 550
e 536 551
e 536 555
e 536 570
e 536 588
e 536 595
e 536 596
e 536 609
e 536 641
e 536 644
e 536 679
e 536 701
e 536 724
e 536 725
e 536 735
e 536 740
e 536 742
e 536 744
e 536 764
e 536 777
e 536 804
e 536 806
e 536 812
e 537 538
e 537 539
e 537 549
e 537 550
e 537 551
e 537 555
e 537 570
e 537 588
e 537 595
e 537 596
e 537 609
e 537 641
e 537 644
e 537 679
e 537 701
e 537 724
e 537 725
e 537 735
e 537 740
e 537 742
e 537 744
e 537 764
e 537 777
e 537 804
e 537 806
e 537 812
e 538 539
e 538 543
e 538 548
e 538 549
e 538 550
e 538 551
e 538 552
e 538 554
e 538 556
e 538 558
e 538 559
e 538 569
e 538 570
e 538 577
e 538 578
e 538 579
e 538 580
e 538 581
e 538 583
e 538 584
e 538 588
e 538 589
e 538 595
e 538 596
e 538 607
e 538 609
e 538 610
e 538 613
e 538 615
e 538 616
e 538 623
e 538 624
e 538 627
e 538 628
e 538 629
e 538 635
e 538 638
e 538 641
e 538 642
e 538 644
e 538 647
e 538 649
e 538 650
e 538 652
e 538 654
e 538 657
e 538 658
e 538 661
e 538 663
e 538 668
e 538 672
e 538 673
e 538 675
e 538 676
e 538 677
e 538 679
e 538 681
e 538 683
e 538 684
e 538 688
e 538 689
e 538 694
e 538 695
e 538 696
e 538 697
e 538 698
e 538 699
e 538 701
e 538 703
e 538 704
e 538 706
e 538 707
e 538 709
e 538 711
e 538 712
e 538 716
e 538 717
e 538 721
e 538 724
e 538 730
e 538 731
e 538 732
e 538 733
e 538 735
e 538 736
e 538 738
e 538 739
e 538 740
e 538 741
e 538 742
e 538 744
e 538 745
e 538 747
e 538 748
e 538 751
e 538 752
e 538 757
e 538 759
e 538 760
e 538 764
e 538 766
e 538 769
e 538 770
e 538 772
e 538 776
e 538 777
e 538 778
e 538 779
e 538 780
e 538 781
e 538 782
e 538 787
e 538 794
e 538 796
e 538 797
e 538 798
e 538 799
e 538 800
e 538 801
e 538 803
e 538 806
e 538 807
e 538 808
e 538 810
e 538 811
e 538 812
e 538 813
e 538 816
e 538 818
e 538 821
e 538 822
e 538 824
e 538 825
e 538 827
e 538 828
e 538 829
e 538 830
e 538 831
e 538 832
e 538 833
e 538 834
e 538 835
e 538 836
e 538 837
e 538 840
e 538 842
e 538 843
e 538 844
e 538 848
e 538 849
e 538 850
e 538 851
e 538 852
e 538 855
e 539 549
e 539 550
e 539 551
e 539 555
e 539 570
e 539 588
e 539 595
e 539 596
e 539 609
e 539 641
e 539 644
e 539 679
e 539 701
e 539 724
e 539 725
e 539 735
e 539 740
e 539 742
e 539 744
e 539 764
e 539 777
e 539 804
e 539 806
e 539 812
e 540 591
e 540 640
e 540 655
e 540 674
e 540 757
e 540 812
e 541 543
e 541 548
e 541 552
e 541 556
e 541 586
e 541 613
e 541 633
e 541 642
e 541 647
e 541 670
e 541 700
e 541 704
e 541 762
e 541 770
e 541 774
e 541 784
e 541 789
e 541 797
e 542 550
e 542 588
e 542 596
e 542 602
e 542 608
e 542 616
e 542 627
e 542 644
e 542 697
e 542 708
e 542 714
e 542 715
e 542 723
e 542 724
e 542 740
e 542 751
e 542 759
e 542 774
e 543 544
e 543 545
e 543 546
e 543 547
e 543 548
e 543 549
e 543 550
e 543 551
e 543 552
e 543 553
e 543 554
e 543 556
e 543 558
e 543 560
e 543 561
e 543 562
e 543 563
e 543 564
e 543 566
e 543 570
e 543 578
e 543 586
e 543 588
e 543 589
e 543 595
e 543 604
e 543 607
e 543 610
e 543 611
e 543 613
e 543 615
e 543 616
e 543 623
e 543 624
e 543 626
e 543 627
e 543 628
e 543 629
e 543 630
e 543 631
e 543 633
e 543 635
e 543 641
e 543 642
e 543 647
e 543 654
e 543 657
e 543 660
e 543 661
e 543 666
e 543 667
e 543 668
e 543 669
e 543 670
e 543 671
e 543 672
e 543 673
e 543 674
e 543 676
e 543 677
e 543 679
e 543 680
e 543 686
e 543 687
e 543 691
e 543 695
e 543 697
e 543 698
e 543 700
e 543 701
e 543 703
e 543 704
e 543 707
e 543 709
e 543 710
e 543 717
e 543 720
e 543 721
e 543 722
e 543 723
e 543 727
e 543 737
e 543 738
e 543 740
e 543 741
e 543 742
e 543 744
e 543 745
e 543 749
e 543 751
e 543 752
e 543 753
e 543 756
e 543 757
e 543 758
e 543 761
e 543 762
e 543 764
e 543 765
e 543 766
e 543 767
e 543 768
e 543 769
e 543 770
e 543 772
e 543 773
e 543 774
e 543 776
e 543 777
e 543 778
e 543 779
e 543 780
e 543 781
e 543 782
e 543 784
e 543 787
e 543 789
e 543 794
e 543 795
e 543 796
e 543 797
e 543 798
e 543 799
e 543 800
e 543 805
e 543 806
e 543 807
e 543 809
e 543 810
e 543 812
e 543 813
e 543 814
e 543 817
e 543 821
e 543 823
e 543 824
e 543 825
e 543 826
e 543 827
e 543 828
e 543 829
e 543 833
e 543 837
e 543 838
e 543 840
e 543 843
e 543 844
e 543 846
e 543 848
e 543 849
e 543 850
e 543 852
e 543 853
e 543 855
e 544 545
e 544 546
e 544 547
e 544 548
e 544 549
e 544 551
e 544 570
e 544 613
e 544 624
e 544 642
e 544 647
e 544 667
e 544 669
e 544 672
e 544 674
e 544 687
e 544 707
e 544 721
e 544 722
e 544 757
e 544 765
e 544 770
e 544 796
e 544 848
e 545 546
e 545 547
e 545 548
e 545 549
e 545 551
e 545 570
e 545 613
e 545 624
e 545 642
e 545 647
e 545 667
e 545 669
e 545 672
e 545 674
e 545 687
e 545 707
e 545 721
e 545 722
e 545 757
e 545 765
e 545 770
e 545 796
e 545 848
e 546 547
e 546 548
e 546 549
e 546 551
e 546 570
e 546 613
e 546 624
e 546 642
e 546 647
e 546 667
e 546 669
e 546 672
e 546 674
e 546 687
e 546 707
e 546 721
e 546 722
e 546 757
e 546 765
e 546 770
e 546 796
e 546 848
e 547 548
e 547 549
e 547 551
e 547 570
e 547 613
e 547 624
e 547 642
e 547 647
e 547 667
e 547 669
e 547 672
e 547 674
e 547 687
e 547 707
e 547 721
e 547 722
e 547 757
e 547 765
e 547 770
e 547 796
e 547 848
e 548 549
e 548 550
e 548 551
e 548 552
e 548 553
e 548 556
e 548 558
e 548 560
e 548 561
e 548 562
e 548 564
e 548 565
e 548 569
e 548 570
e 548 578
e 548 579
e 548 580
e 548 581
e 548 585
e 548 586
e 548 588
e 548 589
e 548 590
e 548 592
e 548 595
e 548 596
e 548 597
e 548 602
e 548 604
e 548 606
e 548 607
e 548 610
e 548 613
e 548 615
e 548 616
e 548 617
e 548 619
e 548 622
e 548 623
e 548 624
e 548 626
e 548 627
e 548 628
e 548 629
e 548 630
e 548 631
e 548 632
e 548 633
e 548 635
e 548 636
e 548 637
e 548 638
e 548 641
e 548 642
e 548 644
e 548 647
e 548 653
e 548 654
e 548 657
e 548 658
e 548 660
e 548 661
e 548 662
e 548 663
e 548 666
e 548 667
e 548 668
e 548 669
e 548 670
e 548 671
e 548 672
e 548 673
e 548 674
e 548 675
e 548 676
e 548 677
e 548 678
e 548 679
e 548 682
e 548 685
e 548 686
e 548 687
e 548 688
e 548 690
e 548 691
e 548 692
e 548 693
e 548 694
e 548 695
e 548 696
e 548 697
e 548 699
e 548 700
e 548 701
e 548 702
e 548 703
e 548 704
e 548 705
e 548 707
e 548 708
e 548 709
e 548 710
e 548 711
e 548 712
e 548 715
e 548 716
e 548 718
e 548 720
e 548 721
e 548 722
e 548 723
e 548 725
e 548 729
e 548 730
e 548 731
e 548 732
e 548 734
e 548 735
e 548 736
e 548 739
e 548 740
e 548 741
e 548 742
e 548 744
e 548 745
e 548 747
e 548 748
e 548 751
e 548 752
e 548 753
e 548 754
e 548 755
e 548 756
e 548 757
e 548 758
e 548 759
e 548 761
e 548 762
e 548 763
e 548 765
e 548 766
e 548 767
e 548 769
e 548 770
e 548 771
e 548 772
e 548 774
e 548 777
e 548 778
e 548 779
e 548 780
e 548 782
e 548 783
e 548 784
e 548 786
e 548 788
e 548 789
e 548 790
e 548 791
e 548 792
e 548 793
e 548 795
e 548 796
e 548 797
e 548 798
e 548 799
e 548 800
e 548 801
e 548 802
e 548 803
e 548 805
e 548 807
e 548 808
e 548 809
e 548 810
e 548 811
e 548 814
e 548 815
e 548 816
e 548 817
e 548 818
e 548 819
e 548 820
e 548 821
e 548 822
e 548 823
e 548 824
e 548 825
e 548 826
e 548 827
e 548 829
e 548 831
e 548 832
e 548 833
e 548 834
e 548 835
e 548 836
e 548 837
e 548 838
e 548 839
e 548 840
e 548 841
e 548 842
e 548 843
e 548 844
e 548 845
e 548 846
e 548 847
e 548 848
e 548 849
e 548 850
e 548 851
e 548 852
e 548 853
e 548 855
e 549 551
e 549 552
e 549 553
e 549 554
e 549 556
e 549 558
e 549 569
e 549 570
e 549 576
e 549 585
e 549 586
e 549 588
e 549 589
e 549 590
e 549 595
e 549 596
e 549 604
e 549 606
e 549 608
e 549 609
e 549 610
e 549 611
e 549 613
e 549 615
e 549 616
e 549 623
e 549 624
e 549 625
e 549 626
e 549 627
e 549 632
e 549 633
e 549 642
e 549 644
e 549 645
e 549 646
e 549 647
e 549 648
e 549 654
e 549 657
e 549 660
e 549 661
e 549 667
e 549 668
e 549 669
e 549 670
e 549 671
e 549 672
e 549 673
e 549 674
e 549 675
e 549 676
e 549 677
e 549 679
e 549 680
e 549 682
e 549 685
e 549 686
e 549 687
e 549 688
e 549 693
e 549 695
e 549 697
e 549 699
e 549 700
e 549 701
e 549 704
e 549 707
e 549 709
e 549 713
e 549 714
e 549 716
e 549 717
e 549 720
e 549 721
e 549 722
e 549 723
e 549 724
e 549 727
e 549 731
e 549 737
e 549 738
e 549 740
e 549 741
e 549 742
e 549 744
e 549 751
e 549 754
e 549 756
e 549 757
e 549 758
e 549 759
e 549 764
e 549 765
e 549 766
e 549 767
e 549 768
e 549 769
e 549 770
e 549 771
e 549 772
e 549 774
e 549 775
e 549 777
e 549 778
e 549 779
e 549 780
e 549 781
e 549 782
e 549 784
e 549 788
e 549 794
e 549 795
e 549 796
e 549 798
e 549 799
e 549 800
e 549 802
e 549 805
e 549 806
e 549 807
e 549 809
e 549 811
e 549 812
e 549 813
e 549 814
e 549 815
e 549 821
e 549 823
e 549 824
e 549 825
e 549 826
e 549 827
e 549 828
e 549 829
e 549 830
e 549 832
e 549 833
e 549 837
e 549 838
e 549 840
e 549 841
e 549 843
e 549 846
e 549 848
e 549 849
e 549 850
e 549 851
e 549 852
e 549 853
e 549 855
e 550 551
e 550 552
e 550 555
e 550 557
e 550 563
e 550 565
e 550 569
e 550 570
e 550 577
e 550 578
e 550 579
e 550 586
e 550 588
e 550 589
e 550 591
e 550 595
e 550 596
e 550 598
e 550 599
e 550 602
e 550 606
e 550 607
e 550 608
e 550 609
e 550 610
e 550 613
e 550 615
e 550 616
e 550 622
e 550 623
e 550 624
e 550 627
e 550 628
e 550 629
e 550 631
e 550 633
e 550 635
e 550 638
e 550 641
e 550 642
e 550 643
e 550 644
e 550 647
e 550 649
e 550 650
e 550 654
e 550 657
e 550 658
e 550 659
e 550 661
e 550 663
e 550 664
e 550 666
e 550 667
e 550 668
e 550 672
e 550 674
e 550 675
e 550 676
e 550 677
e 550 678
e 550 679
e 550 687
e 550 688
e 550 691
e 550 694
e 550 695
e 550 697
e 550 699
e 550 701
e 550 703
e 550 704
e 550 706
e 550 707
e 550 708
e 550 709
e 550 710
e 550 711
e 550 712
e 550 714
e 550 715
e 550 716
e 550 717
e 550 719
e 550 721
e 550 722
e 550 723
e 550 724
e 550 725
e 550 726
e 550 728
e 550 730
e 550 731
e 550 732
e 550 735
e 550 736
e 550 739
e 550 740
e 550 741
e 550 742
e 550 744
e 550 745
e 550 748
e 550 751
e 550 752
e 550 753
e 550 756
e 550 757
e 550 759
e 550 760
e 550 765
e 550 769
e 550 770
e 550 774
e 550 775
e 550 776
e 550 777
e 550 778
e 550 779
e 550 780
e 550 782
e 550 783
e 550 787
e 550 796
e 550 798
e 550 799
e 550 800
e 550 801
e 550 803
e 550 804
e 550 807
e 550 808
e 550 809
e 550 811
e 550 813
e 550 815
e 550 816
e 550 817
e 550 822
e 550 824
e 550 825
e 550 826
e 550 827
e 550 828
e 550 829
e 550 830
e 550 831
e 550 832
e 550 833
e 550 834
e 550 835
e 550 836
e 550 837
e 550 840
e 550 842
e 550 843
e 550 844
e 550 847
e 550 848
e 550 850
e 550 851
e 550 852
e 550 855
e 551 552
e 551 554
e 551 555
e 551 556
e 551 558
e 551 559
e 551 560
e 551 561
e 551 562
e 551 564
e 551 569
e 551 570
e 551 576
e 551 578
e 551 579
e 551 580
e 551 581
e 551 586
e 551 588
e 551 595
e 551 596
e 551 601
e 551 604
e 551 606
e 551 609
e 551 610
e 551 613
e 551 615
e 551 624
e 551 625
e 551 626
e 551 627
e 551 628
e 551 629
e 551 630
e 551 631
e 551 633
e 551 638
e 551 639
e 551 641
e 551 642
e 551 644
e 551 647
e 551 652
e 551 654
e 551 655
e 551 657
e 551 658
e 551 660
e 551 663
e 551 666
e 551 667
e 551 668
e 551 669
e 551 670
e 551 671
e 551 672
e 551 673
e 551 674
e 551 675
e 551 676
e 551 677
e 551 679
e 551 680
e 551 687
e 551 688
e 551 691
e 551 694
e 551 695
e 551 696
e 551 697
e 551 699
e 551 700
e 551 701
e 551 703
e 551 704
e 551 705
e 551 707
e 551 708
e 551 709
e 551 710
e 551 712
e 551 717
e 551 718
e 551 720
e 551 721
e 551 722
e 551 723
e 551 724
e 551 725
e 551 729
e 551 730
e 551 731
e 551 732
e 551 733
e 551 735
e 551 740
e 551 741
e 551 742
e 551 743
e 551 744
e 551 746
e 551 747
e 551 748
e 551 749
e 551 750
e 551 751
e 551 752
e 551 753
e 551 755
e 551 756
e 551 757
e 551 758
e 551 759
e 551 762
e 551 764
e 551 765
e 551 769
e 551 770
e 551 772
e 551 773
e 551 774
e 551 776
e 551 777
e 551 778
e 551 779
e 551 780
e 551 781
e 551 782
e 551 784
e 551 786
e 551 789
e 551 790
e 551 795
e 551 796
e 551 797
e 551 798
e 551 799
e 551 801
e 551 803
e 551 804
e 551 805
e 551 806
e 551 807
e 551 809
e 551 811
e 551 812
e 551 817
e 551 826
e 551 829
e 551 831
e 551 832
e 551 833
e 551 835
e 551 838
e 551 840
e 551 845
e 551 846
e 551 848
e 551 849
e 551 852
e 551 853
e 551 855
e 552 554
e 552 556
e 552 558
e 552 560
e 552 561
e 552 562
e 552 563
e 552 564
e 552 569
e 552 570
e 552 576
e 552 578
e 552 586
e 552 588
e 552 589
e 552 595
e 552 598
e 552 599
e 552 606
e 552 607
e 552 611
e 552 612
e 552 613
e 552 614
e 552 615
e 552 616
e 552 618
e 552 621
e 552 623
e 552 624
e 552 626
e 552 627
e 552 628
e 552 629
e 552 630
e 552 631
e 552 632
e 552 633
e 552 642
e 552 645
e 552 646
e 552 647
e 552 648
e 552 654
e 552 657
e 552 658
e 552 660
e 552 661
e 552 666
e 552 668
e 552 669
e 552 670
e 552 671
e 552 672
e 552 674
e 552 675
e 552 676
e 552 677
e 552 679
e 552 686
e 552 687
e 552 688
e 552 691
e 552 695
e 552 697
e 552 699
e 552 700
e 552 703
e 552 704
e 552 707
e 552 709
e 552 710
e 552 711
e 552 713
e 552 717
e 552 718
e 552 720
e 552 721
e 552 722
e 552 726
e 552 727
e 552 729
e 552 730
e 552 731
e 552 732
e 552 737
e 552 738
e 552 740
e 552 741
e 552 742
e 552 744
e 552 745
e 552 748
e 552 749
e 552 751
e 552 752
e 552 753
e 552 754
e 552 755
e 552 756
e 552 757
e 552 759
e 552 761
e 552 762
e 552 764
e 552 765
e 552 768
e 552 769
e 552 770
e 552 772
e 552 773
e 552 774
e 552 775
e 552 776
e 552 777
e 552 778
e 552 779
e 552 780
e 552 781
e 552 782
e 552 784
e 552 787
e 552 789
e 552 790
e 552 794
e 552 796
e 552 797
e 552 798
e 552 799
e 552 800
e 552 802
e 552 803
e 552 805
e 552 806
e 552 807
e 552 809
e 552 811
e 552 812
e 552 813
e 552 814
e 552 815
e 552 817
e 552 821
e 552 824
e 552 825
e 552 826
e 552 827
e 552 828
e 552 829
e 552 830
e 552 831
e 552 832
e 552 833
e 552 835
e 552 836
e 552 837
e 552 841
e 552 842
e 552 843
e 552 844
e 552 845
e 552 846
e 552 848
e 552 849
e 552 850
e 552 851
e 552 852
e 552 853
e 552 855
e 553 589
e 553 595
e 553 596
e 553 623
e 553 627
e 553 642
e 553 650
e 553 670
e 553 673
e 553 704
e 553 721
e 553 736
e 553 742
e 553 758
e 553 778
e 553 780
e 553 795
e 553 805
e 553 830
e 553 835
e 553 836
e 553 838
e 553 840
e 553 843
e 553 853
e 553 855
e 554 555
e 554 570
e 554 589
e 554 615
e 554 625
e 554 639
e 554 642
e 554 657
e 554 695
e 554 701
e 554 704
e 554 725
e 554 735
e 554 741
e 554 744
e 554 746
e 554 751
e 554 757
e 554 764
e 554 769
e 554 772
e 554 773
e 554 781
e 554 782
e 554 794
e 554 804
e 554 806
e 554 812
e 554 831
e 555 588
e 555 595
e 555 596
e 555 609
e 555 615
e 555 625
e 555 639
e 555 641
e 555 642
e 555 657
e 555 679
e 555 695
e 555 701
e 555 724
e 555 725
e 555 735
e 555 742
e 555 744
e 555 746
e 555 751
e 555 769
e 555 772
e 555 773
e 555 804
e 555 812
e 555 831
e 556 570
e 556 578
e 556 586
e 556 588
e 556 607
e 556 613
e 556 628
e 556 629
e 556 630
e 556 632
e 556 633
e 556 635
e 556 642
e 556 647
e 556 654
e 556 657
e 556 669
e 556 670
e 556 671
e 556 672
e 556 674
e 556 676
e 556 695
e 556 700
e 556 704
e 556 718
e 556 720
e 556 721
e 556 729
e 556 742
e 556 751
e 556 756
e 556 757
e 556 762
e 556 769
e 556 770
e 556 774
e 556 780
e 556 784
e 556 789
e 556 797
e 556 807
e 556 809
e 556 810
e 556 824
e 556 833
e 556 845
e 556 846
e 556 849
e 556 852
e 556 853
e 557 570
e 557 622
e 557 638
e 557 672
e 557 674
e 557 678
e 557 679
e 557 687
e 557 701
e 557 722
e 557 752
e 557 757
e 557 833
e 557 842
e 557 850
e 558 559
e 558 569
e 558 570
e 558 578
e 558 595
e 558 604
e 558 616
e 558 624
e 558 626
e 558 627
e 558 628
e 558 629
e 558 633
e 558 638
e 558 642
e 558 652
e 558 654
e 558 657
e 558 660
e 558 670
e 558 672
e 558 676
e 558 687
e 558 691
e 558 704
e 558 707
e 558 709
e 558 712
e 558 720
e 558 722
e 558 733
e 558 758
e 558 769
e 558 774
e 558 780
e 558 795
e 558 796
e 558 805
e 558 838
e 558 846
e 558 853
e 558 855
e 559 569
e 559 595
e 559 638
e 559 652
e 559 709
e 559 712
e 559 733
e 560 561
e 560 562
e 560 564
e 560 570
e 560 595
e 560 629
e 560 631
e 560 642
e 560 666
e 560 676
e 560 710
e 560 741
e 560 777
e 560 799
e 560 817
e 561 562
e 561 563
e 561 564
e 561 570
e 561 578
e 561 616
e 561 631
e 561 633
e 561 642
e 561 654
e 561 666
e 561 676
e 561 687
e 561 691
e 561 707
e 561 709
e 561 710
e 561 741
e 561 757
e 561 777
e 561 796
e 561 799
e 561 817
e 561 826
e 562 564
e 562 570
e 562 595
e 562 629
e 562 631
e 562 642
e 562 666
e 562 676
e 562 710
e 562 741
e 562 777
e 562 799
e 562 817
e 563 564
e 563 569
e 563 578
e 563 606
e 563 616
e 563 627
e 563 631
e 563 633
e 563 642
e 563 654
e 563 668
e 563 676
e 563 679
e 563 687
e 563 691
e 563 707
e 563 709
e 563 741
e 563 742
e 563 748
e 563 757
e 563 796
e 563 799
e 563 811
e 563 817
e 563 826
e 563 827
e 563 832
e 564 570
e 564 578
e 564 616
e 564 631
e 564 633
e 564 642
e 564 654
e 564 666
e 564 676
e 564 687
e 564 691
e 564 707
e 564 709
e 564 710
e 564 741
e 564 757
e 564 777
e 564 796
e 564 799
e 564 817
e 564 826
e 565 570
e 565 622
e 565 629
e 565 635
e 565 638
e 565 672
e 565 674
e 565 678
e 565 679
e 565 687
e 565 722
e 565 741
e 565 744
e 565 752
e 565 757
e 565 770
e 565 833
e 565 837
e 565 850
e 566 578
e 566 615
e 566 616
e 566 624
e 566 626
e 566 703
e 566 707
e 566 741
e 566 745
e 566 757
e 566 761
e 566 768
e 566 794
e 566 828
e 567 568
e 567 586
e 567 616
e 567 640
e 567 641
e 567 643
e 567 654
e 567 664
e 567 679
e 567 688
e 567 707
e 567 717
e 567 719
e 567 739
e 567 742
e 567 744
e 567 756
e 567 762
e 567 774
e 567 784
e 567 804
e 567 807
e 567 809
e 568 586
e 568 616
e 568 640
e 568 641
e 568 643
e 568 654
e 568 664
e 568 679
e 568 688
e 568 707
e 568 717
e 568 719
e 568 739
e 568 742
e 568 744
e 568 756
e 568 762
e 568 774
e 568 784
e 568 804
e 568 807
e 568 809
e 569 570
e 569 576
e 569 578
e 569 580
e 569 581
e 569 583
e 569 584
e 569 585
e 569 586
e 569 588
e 569 589
e 569 590
e 569 592
e 569 595
e 569 597
e 569 600
e 569 602
e 569 606
e 569 607
e 569 610
e 569 615
e 569 616
e 569 622
e 569 623
e 569 625
e 569 627
e 569 629
e 569 631
e 569 633
e 569 636
e 569 637
e 569 638
e 569 641
e 569 642
e 569 644
e 569 647
e 569 652
e 569 653
e 569 654
e 569 657
e 569 659
e 569 661
e 569 662
e 569 663
e 569 666
e 569 667
e 569 668
e 569 670
e 569 672
e 569 673
e 569 675
e 569 676
e 569 678
e 569 679
e 569 681
e 569 682
e 569 683
e 569 684
e 569 685
e 569 687
e 569 688
e 569 689
e 569 690
e 569 691
e 569 693
e 569 694
e 569 695
e 569 696
e 569 697
e 569 699
e 569 701
e 569 702
e 569 703
e 569 704
e 569 705
e 569 707
e 569 708
e 569 709
e 569 710
e 569 711
e 569 712
e 569 714
e 569 715
e 569 716
e 569 717
e 569 719
e 569 721
e 569 723
e 569 726
e 569 727
e 569 728
e 569 730
e 569 731
e 569 733
e 569 734
e 569 735
e 569 737
e 569 738
e 569 739
e 569 740
e 569 741
e 569 742
e 569 744
e 569 745
e 569 747
e 569 748
e 569 751
e 569 752
e 569 754
e 569 755
e 569 756
e 569 757
e 569 759
e 569 763
e 569 765
e 569 768
e 569 769
e 569 770
e 569 771
e 569 773
e 569 775
e 569 777
e 569 778
e 569 779
e 569 780
e 569 781
e 569 782
e 569 783
e 569 785
e 569 788
e 569 791
e 569 792
e 569 793
e 569 794
e 569 796
e 569 798
e 569 799
e 569 801
e 569 802
e 569 803
e 569 807
e 569 808
e 569 809
e 569 810
e 569 811
e 569 812
e 569 814
e 569 815
e 569 816
e 569 817
e 569 818
e 569 819
e 569 820
e 569 822
e 569 823
e 569 824
e 569 825
e 569 826
e 569 827
e 569 829
e 569 830
e 569 831
e 569 832
e 569 833
e 569 834
e 569 836
e 569 837
e 569 838
e 569 839
e 569 840
e 569 841
e 569 842
e 569 843
e 569 844
e 569 847
e 569 848
e 569 849
e 569 850
e 569 851
e 569 852
e 569 853
e 569 855
e 570 576
e 570 578
e 570 580
e 570 581
e 570 583
e 570 584
e 570 586
e 570 588
e 570 589
e 570 590
e 570 593
e 570 594
e 570 595
e 570 596
e 570 600
e 570 602
e 570 606
e 570 607
e 570 608
e 570 609
e 570 610
e 570 611
e 570 613
e 570 615
e 570 616
e 570 620
e 570 622
e 570 623
e 570 624
e 570 625
e 570 627
e 570 628
e 570 629
e 570 630
e 570 631
e 570 633
e 570 634
e 570 635
e 570 638
e 570 641
e 570 642
e 570 644
e 570 647
e 570 652
e 570 654
e 570 656
e 570 657
e 570 659
e 570 660
e 570 661
e 570 662
e 570 663
e 570 666
e 570 667
e 570 669
e 570 670
e 570 671
e 570 672
e 570 673
e 570 674
e 570 675
e 570 676
e 570 677
e 570 678
e 570 679
e 570 680
e 570 681
e 570 682
e 570 683
e 570 684
e 570 687
e 570 688
e 570 689
e 570 691
e 570 694
e 570 695
e 570 696
e 570 697
e 570 698
e 570 699
e 570 701
e 570 702
e 570 703
e 570 704
e 570 705
e 570 707
e 570 708
e 570 709
e 570 710
e 570 712
e 570 714
e 570 715
e 570 716
e 570 717
e 570 719
e 570 721
e 570 722
e 570 723
e 570 724
e 570 727
e 570 728
e 570 730
e 570 731
e 570 733
e 570 735
e 570 737
e 570 738
e 570 739
e 570 740
e 570 741
e 570 742
e 570 744
e 570 745
e 570 747
e 570 749
e 570 751
e 570 752
e 570 753
e 570 756
e 570 757
e 570 759
e 570 760
e 570 761
e 570 763
e 570 764
e 570 765
e 570 768
e 570 769
e 570 770
e 570 772
e 570 773
e 570 774
e 570 775
e 570 776
e 570 777
e 570 778
e 570 779
e 570 780
e 570 781
e 570 782
e 570 783
e 570 785
e 570 787
e 570 791
e 570 792
e 570 793
e 570 794
e 570 796
e 570 797
e 570 798
e 570 799
e 570 800
e 570 802
e 570 803
e 570 805
e 570 806
e 570 807
e 570 809
e 570 810
e 570 811
e 570 812
e 570 813
e 570 814
e 570 815
e 570 817
e 570 818
e 570 819
e 570 820
e 570 821
e 570 822
e 570 824
e 570 825
e 570 826
e 570 828
e 570 829
e 570 830
e 570 831
e 570 832
e 570 833
e 570 835
e 570 836
e 570 837
e 570 839
e 570 840
e 570 841
e 570 842
e 570 843
e 570 844
e 570 845
e 570 846
e 570 847
e 570 848
e 570 849
e 570 850
e 570 851
e 570 852
e 570 853
e 570 855
e 571 572
e 571 573
e 571 574
e 571 575
e 571 578
e 571 586
e 571 596
e 571 616
e 571 623
e 571 654
e 571 679
e 571 686
e 571 687
e 571 707
e 571 724
e 571 745
e 571 763
e 571 774
e 571 799
e 571 807
e 571 809
e 571 817
e 572 573
e 572 574
e 572 575
e 572 578
e 572 586
e 572 596
e 572 616
e 572 623
e 572 654
e 572 679
e 572 686
e 572 687
e 572 707
e 572 724
e 572 745
e 572 763
e 572 774
e 572 799
e 572 807
e 572 809
e 572 817
e 573 574
e 573 575
e 573 578
e 573 586
e 573 596
e 573 616
e 573 623
e 573 654
e 573 679
e 573 686
e 573 687
e 573 707
e 573 724
e 573 745
e 573 763
e 573 774
e 573 799
e 573 807
e 573 809
e 573 817
e 574 575
e 574 578
e 574 586
e 574 596
e 574 616
e 574 623
e 574 654
e 574 679
e 574 686
e 574 687
e 574 707
e 574 724
e 574 745
e 574 763
e 574 774
e 574 799
e 574 807
e 574 809
e 574 817
e 575 578
e 575 586
e 575 596
e 575 616
e 575 623
e 575 654
e 575 679
e 575 686
e 575 687
e 575 707
e 575 724
e 575 745
e 575 763
e 575 774
e 575 799
e 575 807
e 575 809
e 575 817
e 576 627
e 576 642
e 576 675
e 576 688
e 576 695
e 576 717
e 576 731
e 576 741
e 576 769
e 576 777
e 576 781
e 576 782
e 576 807
e 576 811
e 576 826
e 576 829
e 576 832
e 577 578
e 577 588
e 577 596
e 577 623
e 577 627
e 577 650
e 577 706
e 577 721
e 577 735
e 577 736
e 577 742
e 577 744
e 577 745
e 577 769
e 577 778
e 577 799
e 577 822
e 577 827
e 577 830
e 577 835
e 577 836
e 577 848
e 578 579
e 578 580
e 578 581
e 578 586
e 578 588
e 578 589
e 578 595
e 578 596
e 578 606
e 578 613
e 578 615
e 578 616
e 578 620
e 578 623
e 578 624
e 578 626
e 578 627
e 578 628
e 578 629
e 578 630
e 578 631
e 578 633
e 578 641
e 578 642
e 578 643
e 578 647
e 578 650
e 578 654
e 578 656
e 578 657
e 578 658
e 578 659
e 578 660
e 578 661
e 578 663
e 578 664
e 578 668
e 578 669
e 578 670
e 578 671
e 578 672
e 578 673
e 578 674
e 578 676
e 578 677
e 578 679
e 578 686
e 578 687
e 578 688
e 578 691
e 578 694
e 578 695
e 578 696
e 578 697
e 578 699
e 578 700
e 578 703
e 578 706
e 578 707
e 578 709
e 578 710
e 578 712
e 578 714
e 578 715
e 578 717
e 578 719
e 578 721
e 578 722
e 578 724
e 578 728
e 578 730
e 578 732
e 578 735
e 578 736
e 578 739
e 578 740
e 578 741
e 578 742
e 578 744
e 578 745
e 578 747
e 578 748
e 578 749
e 578 752
e 578 756
e 578 757
e 578 760
e 578 761
e 578 763
e 578 768
e 578 769
e 578 770
e 578 773
e 578 774
e 578 775
e 578 778
e 578 779
e 578 780
e 578 782
e 578 785
e 578 787
e 578 794
e 578 796
e 578 797
e 578 799
e 578 800
e 578 801
e 578 803
e 578 805
e 578 807
e 578 809
e 578 811
e 578 813
e 578 816
e 578 817
e 578 819
e 578 820
e 578 822
e 578 824
e 578 826
e 578 827
e 578 828
e 578 829
e 578 830
e 578 831
e 578 832
e 578 833
e 578 835
e 578 836
e 578 840
e 578 844
e 578 845
e 578 846
e 578 848
e 578 850
e 578 851
e 578 855
e 579 628
e 579 657
e 579 658
e 579 668
e 579 677
e 579 688
e 579 703
e 579 707
e 579 730
e 579 732
e 579 748
e 579 801
e 579 803
e 579 811
e 579 840
e 580 581
e 580 647
e 580 657
e 580 663
e 580 672
e 580 673
e 580 694
e 580 696
e 580 697
e 580 699
e 580 703
e 580 709
e 580 712
e 580 730
e 580 744
e 580 747
e 580 752
e 580 757
e 580 770
e 580 796
e 580 811
e 581 647
e 581 657
e 581 663
e 581 672
e 581 673
e 581 694
e 581 696
e 581 697
e 581 699
e 581 703
e 581 709
e 581 712
e 581 730
e 581 744
e 581 747
e 581 752
e 581 757
e 581 770
e 581 796
e 581 811
e 582 627
e 582 641
e 582 654
e 582 672
e 582 695
e 582 698
e 582 707
e 582 716
e 582 731
e 582 741
e 582 744
e 582 767
e 582 801
e 582 815
e 582 816
e 582 823
e 582 824
e 582 828
e 582 843
e 583 584
e 583 638
e 583 652
e 583 657
e 583 672
e 583 681
e 583 683
e 583 684
e 583 689
e 583 703
e 583 707
e 583 733
e 583 741
e 583 747
e 583 752
e 583 796
e 583 811
e 583 818
e 583 840
e 583 842
e 583 843
e 584 638
e 584 652
e 584 657
e 584 672
e 584 681
e 584 683
e 584 684
e 584 689
e 584 703
e 584 707
e 584 733
e 584 741
e 584 747
e 584 752
e 584 796
e 584 811
e 584 818
e 584 840
e 584 842
e 584 843
e 585 589
e 585 595
e 585 623
e 585 642
e 585 647
e 585 654
e 585 673
e 585 676
e 585 682
e 585 685
e 585 704
e 585 721
e 585 742
e 585 744
e 585 771
e 585 788
e 585 799
e 585 815
e 585 823
e 585 838
e 585 851
e 585 855
e 586 587
e 586 588
e 586 596
e 586 603
e 586 606
e 586 607
e 586 613
e 586 615
e 586 616
e 586 617
e 586 619
e 586 622
e 586 623
e 586 626
e 586 633
e 586 637
e 586 640
e 586 641
e 586 642
e 586 643
e 586 647
e 586 654
e 586 657
e 586 659
e 586 664
e 586 665
e 586 670
e 586 674
e 586 675
e 586 676
e 586 679
e 586 686
e 586 687
e 586 688
e 586 692
e 586 700
e 586 704
e 586 705
e 586 707
e 586 710
e 586 714
e 586 715
e 586 716
e 586 717
e 586 719
e 586 721
e 586 724
e 586 728
e 586 735
e 586 736
e 586 739
e 586 740
e 586 742
e 586 744
e 586 745
e 586 749
e 586 750
e 586 756
e 586 757
e 586 762
e 586 763
e 586 769
e 586 770
e 586 772
e 586 773
e 586 774
e 586 778
e 586 782
e 586 784
e 586 786
e 586 789
e 586 791
e 586 792
e 586 793
e 586 796
e 586 797
e 586 799
e 586 803
e 586 804
e 586 807
e 586 809
e 586 817
e 586 819
e 586 820
e 586 824
e 586 829
e 586 833
e 586 839
e 586 841
e 586 847
e 587 603
e 587 607
e 587 615
e 587 627
e 587 637
e 587 642
e 587 647
e 587 656
e 587 657
e 587 665
e 587 675
e 587 676
e 587 687
e 587 692
e 587 701
e 587 704
e 587 716
e 587 725
e 587 744
e 587 750
e 587 755
e 587 760
e 587 778
e 587 790
e 587 804
e 587 839
e 587 845
e 588 589
e 588 591
e 588 595
e 588 596
e 588 597
e 588 598
e 588 599
e 588 602
e 588 606
e 588 607
e 588 608
e 588 609
e 588 610
e 588 611
e 588 613
e 588 615
e 588 616
e 588 623
e 588 624
e 588 627
e 588 629
e 588 630
e 588 632
e 588 635
e 588 641
e 588 642
e 588 643
e 588 644
e 588 647
e 588 650
e 588 653
e 588 654
e 588 657
e 588 659
e 588 661
e 588 664
e 588 670
e 588 671
e 588 672
e 588 674
e 588 675
e 588 676
e 588 679
e 588 687
e 588 688
e 588 695
e 588 697
e 588 698
e 588 699
e 588 701
e 588 704
e 588 706
e 588 707
e 588 708
e 588 709
e 588 710
e 588 711
e 588 714
e 588 715
e 588 717
e 588 718
e 588 719
e 588 720
e 588 721
e 588 723
e 588 724
e 588 725
e 588 726
e 588 727
e 588 728
e 588 729
e 588 735
e 588 736
e 588 738
e 588 739
e 588 740
e 588 742
e 588 744
e 588 745
e 588 751
e 588 756
e 588 757
e 588 759
e 588 762
e 588 763
e 588 764
e 588 765
e 588 769
e 588 770
e 588 774
e 588 775
e 588 777
e 588 778
e 588 779
e 588 780
e 588 782
e 588 783
e 588 784
e 588 791
e 588 792
e 588 793
e 588 796
e 588 797
e 588 798
e 588 799
e 588 803
e 588 804
e 588 806
e 588 807
e 588 809
e 588 810
e 588 812
e 588 813
e 588 814
e 588 815
e 588 816
e 588 817
e 588 819
e 588 820
e 588 821
e 588 822
e 588 824
e 588 825
e 588 826
e 588 827
e 588 828
e 588 830
e 588 831
e 588 833
e 588 834
e 588 835
e 588 836
e 588 837
e 588 839
e 588 841
e 588 842
e 588 844
e 588 845
e 588 846
e 588 847
e 588 848
e 588 849
e 588 850
e 588 851
e 588 852
e 588 853
e 588 855
e 589 591
e 589 595
e 589 607
e 589 613
e 589 615
e 589 620
e 589 623
e 589 625
e 589 627
e 589 629
e 589 641
e 589 642
e 589 647
e 589 654
e 589 656
e 589 657
e 589 664
e 589 670
e 589 672
e 589 673
e 589 674
e 589 675
e 589 676
e 589 679
e 589 682
e 589 685
e 589 693
e 589 695
e 589 701
e 589 704
e 589 711
e 589 721
e 589 732
e 589 739
e 589 741
e 589 742
e 589 744
e 589 745
e 589 748
e 589 751
e 589 752
e 589 757
e 589 758
e 589 759
e 589 760
e 589 764
e 589 766
e 589 769
e 589 771
e 589 772
e 589 773
e 589 779
e 589 780
e 589 781
e 589 782
e 589 785
e 589 787
e 589 788
e 589 794
e 589 795
e 589 796
e 589 798
e 589 799
e 589 800
e 589 803
e 589 804
e 589 805
e 589 806
e 589 808
e 589 810
e 589 814
e 589 815
e 589 819
e 589 820
e 589 822
e 589 823
e 589 825
e 589 831
e 589 832
e 589 834
e 589 835
e 589 836
e 589 838
e 589 840
e 589 842
e 589 843
e 589 844
e 589 845
e 589 848
e 589 850
e 589 851
e 589 853
e 589 855
e 590 595
e 590 596
e 590 602
e 590 608
e 590 609
e 590 610
e 590 616
e 590 625
e 590 627
e 590 647
e 590 661
e 590 680
e 590 687
e 590 701
e 590 702
e 590 704
e 590 705
e 590 708
e 590 714
e 590 716
e 590 724
e 590 740
e 590 744
e 590 778
e 590 779
e 590 796
e 590 833
e 591 595
e 591 613
e 591 640
e 591 641
e 591 642
e 591 655
e 591 664
e 591 674
e 591 679
e 591 704
e 591 744
e 591 757
e 591 804
e 591 812
e 592 595
e 592 610
e 592 616
e 592 637
e 592 647
e 592 667
e 592 675
e 592 679
e 592 687
e 592 701
e 592 702
e 592 704
e 592 705
e 592 708
e 592 716
e 592 744
e 592 755
e 592 778
e 592 779
e 592 833
e 592 849
e 593 594
e 593 615
e 593 642
e 593 687
e 593 707
e 593 744
e 593 761
e 593 813
e 594 615
e 594 642
e 594 687
e 594 707
e 594 744
e 594 761
e 594 813
e 595 596
e 595 597
e 595 598
e 595 599
e 595 602
e 595 609
e 595 610
e 595 611
e 595 613
e 595 615
e 595 616
e 595 623
e 595 624
e 595 628
e 595 629
e 595 633
e 595 637
e 595 638
e 595 641
e 595 642
e 595 644
e 595 647
e 595 652
e 595 653
e 595 654
e 595 657
e 595 660
e 595 661
e 595 664
e 595 665
e 595 666
e 595 667
e 595 668
e 595 670
e 595 672
e 595 673
e 595 674
e 595 675
e 595 676
e 595 677
e 595 679
e 595 680
e 595 682
e 595 685
e 595 686
e 595 687
e 595 691
e 595 693
e 595 695
e 595 697
e 595 699
e 595 701
e 595 702
e 595 704
e 595 705
e 595 707
e 595 708
e 595 709
e 595 710
e 595 712
e 595 713
e 595 715
e 595 716
e 595 720
e 595 721
e 595 722
e 595 723
e 595 724
e 595 725
e 595 726
e 595 727
e 595 729
e 595 733
e 595 735
e 595 738
e 595 739
e 595 740
e 595 741
e 595 742
e 595 743
e 595 744
e 595 745
e 595 746
e 595 751
e 595 754
e 595 755
e 595 757
e 595 758
e 595 759
e 595 764
e 595 766
e 595 767
e 595 769
e 595 771
e 595 775
e 595 777
e 595 778
e 595 779
e 595 780
e 595 782
e 595 783
e 595 785
e 595 788
e 595 795
e 595 796
e 595 798
e 595 799
e 595 804
e 595 805
e 595 806
e 595 812
e 595 813
e 595 814
e 595 815
e 595 816
e 595 821
e 595 823
e 595 825
e 595 826
e 595 828
e 595 831
e 595 833
e 595 834
e 595 837
e 595 838
e 595 840
e 595 841
e 595 842
e 595 843
e 595 846
e 595 847
e 595 849
e 595 851
e 595 852
e 595 853
e 595 855
e 596 602
e 596 607
e 596 608
e 596 609
e 596 613
e 596 616
e 596 617
e 596 619
e 596 622
e 596 623
e 596 625
e 596 626
e 596 627
e 596 641
e 596 642
e 596 644
e 596 650
e 596 654
e 596 657
e 596 679
e 596 680
e 596 686
e 596 687
e 596 692
e 596 697
e 596 701
e 596 704
e 596 706
e 596 707
e 596 708
e 596 714
e 596 715
e 596 716
e 596 721
e 596 723
e 596 724
e 596 725
e 596 735
e 596 736
e 596 740
e 596 742
e 596 744
e 596 745
e 596 751
e 596 759
e 596 763
e 596 764
e 596 769
e 596 774
e 596 777
e 596 778
e 596 799
e 596 804
e 596 806
e 596 807
e 596 809
e 596 812
e 596 817
e 596 822
e 596 827
e 596 829
e 596 830
e 596 835
e 596 836
e 596 839
e 596 848
e 597 642
e 597 653
e 597 699
e 597 704
e 597 744
e 597 745
e 597 782
e 597 783
e 597 799
e 597 814
e 597 825
e 597 826
e 597 834
e 597 847
e 598 599
e 598 615
e 598 616
e 598 661
e 598 726
e 598 745
e 598 769
e 598 775
e 598 779
e 598 780
e 598 831
e 598 837
e 598 842
e 598 852
e 599 615
e 599 616
e 599 661
e 599 726
e 599 745
e 599 769
e 599 775
e 599 779
e 599 780
e 599 831
e 599 837
e 599 842
e 599 852
e 600 681
e 600 682
e 600 683
e 600 684
e 600 703
e 600 704
e 600 707
e 600 733
e 600 741
e 600 747
e 600 752
e 600 796
e 600 799
e 600 811
e 600 818
e 600 840
e 600 842
e 600 843
e 601 613
e 601 639
e 601 655
e 601 676
e 601 679
e 601 695
e 601 701
e 601 718
e 601 720
e 601 729
e 601 742
e 601 749
e 601 751
e 601 769
e 601 773
e 601 786
e 601 789
e 601 812
e 601 833
e 601 845
e 601 846
e 601 849
e 601 853
e 602 608
e 602 610
e 602 616
e 602 627
e 602 644
e 602 647
e 602 661
e 602 687
e 602 697
e 602 701
e 602 702
e 602 704
e 602 705
e 602 708
e 602 714
e 602 715
e 602 716
e 602 723
e 602 724
e 602 740
e 602 744
e 602 751
e 602 759
e 602 774
e 602 778
e 602 779
e 602 796
e 602 833
e 603 607
e 603 615
e 603 627
e 603 642
e 603 647
e 603 656
e 603 657
e 603 665
e 603 675
e 603 676
e 603 692
e 603 701
e 603 705
e 603 716
e 603 725
e 603 744
e 603 750
e 603 755
e 603 760
e 603 772
e 603 778
e 603 786
e 603 790
e 603 804
e 603 833
e 603 839
e 603 845
e 604 633
e 604 642
e 604 657
e 604 670
e 604 704
e 604 720
e 604 758
e 604 769
e 604 774
e 604 780
e 604 795
e 604 805
e 604 838
e 604 853
e 604 855
e 605 638
e 605 673
e 605 689
e 605 693
e 605 752
e 606 615
e 606 616
e 606 623
e 606 627
e 606 628
e 606 633
e 606 642
e 606 645
e 606 646
e 606 647
e 606 648
e 606 654
e 606 658
e 606 662
e 606 668
e 606 675
e 606 676
e 606 679
e 606 691
e 606 699
e 606 704
e 606 707
e 606 709
e 606 713
e 606 715
e 606 721
e 606 730
e 606 732
e 606 735
e 606 739
e 606 740
e 606 742
e 606 744
e 606 748
e 606 751
e 606 753
e 606 754
e 606 757
e 606 759
e 606 774
e 606 778
e 606 780
e 606 782
e 606 783
e 606 791
e 606 792
e 606 793
e 606 796
e 606 799
e 606 802
e 606 803
e 606 811
e 606 819
e 606 820
e 606 821
e 606 824
e 606 826
e 606 827
e 606 832
e 606 837
e 606 839
e 606 841
e 606 847
e 607 613
e 607 615
e 607 616
e 607 617
e 607 619
e 607 622
e 607 623
e 607 626
e 607 627
e 607 629
e 607 635
e 607 641
e 607 642
e 607 647
e 607 654
e 607 656
e 607 657
e 607 661
e 607 665
e 607 672
e 607 675
e 607 676
e 607 692
e 607 695
e 607 698
e 607 701
e 607 707
e 607 716
e 607 725
e 607 736
e 607 739
e 607 741
e 607 742
e 607 744
e 607 751
e 607 752
e 607 755
e 607 759
e 607 760
e 607 763
e 607 769
e 607 778
e 607 779
e 607 780
e 607 785
e 607 790
e 607 796
e 607 797
e 607 798
e 607 799
e 607 800
e 607 807
e 607 809
e 607 810
e 607 817
e 607 821
e 607 822
e 607 824
e 607 829
e 607 832
e 607 833
e 607 835
e 607 836
e 607 837
e 607 839
e 607 843
e 607 844
e 607 845
e 607 848
e 607 849
e 607 850
e 607 851
e 607 852
e 607 855
e 608 609
e 608 616
e 608 625
e 608 627
e 608 644
e 608 680
e 608 687
e 608 697
e 608 701
e 608 704
e 608 708
e 608 714
e 608 715
e 608 716
e 608 723
e 608 724
e 608 740
e 608 744
e 608 751
e 608 759
e 608 774
e 609 616
e 609 625
e 609 627
e 609 641
e 609 644
e 609 679
e 609 680
e 609 687
e 609 701
e 609 704
e 609 714
e 609 716
e 609 724
e 609 725
e 609 735
e 609 740
e 609 742
e 609 744
e 609 764
e 609 777
e 609 804
e 609 806
e 609 812
e 610 613
e 610 615
e 610 616
e 610 627
e 610 637
e 610 644
e 610 647
e 610 657
e 610 661
e 610 667
e 610 675
e 610 676
e 610 679
e 610 687
e 610 697
e 610 701
e 610 702
e 610 703
e 610 704
e 610 705
e 610 708
e 610 715
e 610 716
e 610 717
e 610 718
e 610 723
e 610 725
e 610 727
e 610 728
e 610 737
e 610 738
e 610 742
e 610 744
e 610 751
e 610 755
e 610 757
e 610 759
e 610 768
e 610 769
e 610 772
e 610 775
e 610 778
e 610 779
e 610 781
e 610 782
e 610 786
e 610 789
e 610 790
e 610 794
e 610 796
e 610 799
e 610 800
e 610 801
e 610 812
e 610 814
e 610 824
e 610 827
e 610 829
e 610 830
e 610 833
e 610 843
e 610 845
e 610 846
e 610 849
e 610 850
e 610 853
e 611 616
e 611 624
e 611 661
e 611 679
e 611 687
e 611 697
e 611 727
e 611 738
e 611 742
e 611 757
e 611 778
e 611 806
e 611 812
e 611 813
e 611 814
e 611 825
e 611 826
e 611 828
e 612 614
e 612 615
e 612 616
e 612 618
e 612 621
e 612 623
e 612 627
e 612 686
e 612 687
e 612 740
e 612 744
e 612 755
e 612 774
e 612 790
e 612 799
e 613 615
e 613 616
e 613 617
e 613 619
e 613 622
e 613 623
e 613 624
e 613 626
e 613 627
e 613 629
e 613 630
e 613 632
e 613 633
e 613 639
e 613 641
e 613 642
e 613 647
e 613 654
e 613 655
e 613 657
e 613 661
e 613 664
e 613 667
e 613 669
e 613 670
e 613 671
e 613 672
e 613 674
e 613 675
e 613 676
e 613 677
e 613 679
e 613 687
e 613 692
e 613 695
e 613 698
e 613 700
e 613 701
e 613 704
e 613 705
e 613 707
e 613 708
e 613 709
e 613 711
e 613 718
e 613 720
e 613 721
e 613 722
e 613 725
e 613 729
e 613 732
e 613 735
e 613 736
e 613 740
e 613 741
e 613 742
e 613 743
e 613 744
e 613 746
e 613 748
e 613 749
e 613 750
e 613 751
e 613 752
e 613 753
e 613 755
e 613 757
e 613 762
e 613 763
e 613 765
e 613 766
e 613 769
e 613 770
e 613 772
e 613 773
e 613 774
e 613 776
e 613 777
e 613 778
e 613 779
e 613 780
e 613 784
e 613 786
e 613 789
e 613 790
e 613 796
e 613 797
e 613 798
e 613 800
e 613 803
e 613 804
e 613 807
e 613 808
e 613 809
e 613 810
e 613 812
e 613 817
e 613 821
e 613 824
e 613 826
e 613 829
e 613 833
e 613 834
e 613 835
e 613 837
e 613 839
e 613 840
e 613 842
e 613 843
e 613 844
e 613 845
e 613 846
e 613 848
e 613 849
e 613 850
e 613 851
e 613 852
e 613 853
e 613 855
e 614 615
e 614 616
e 614 618
e 614 621
e 614 623
e 614 627
e 614 686
e 614 687
e 614 740
e 614 744
e 614 755
e 614 774
e 614 790
e 614 799
e 615 616
e 615 618
e 615 620
e 615 621
e 615 623
e 615 624
e 615 625
e 615 626
e 615 627
e 615 629
e 615 637
e 615 639
e 615 641
e 615 642
e 615 645
e 615 646
e 615 647
e 615 648
e 615 656
e 615 657
e 615 661
e 615 665
e 615 668
e 615 675
e 615 676
e 615 679
e 615 686
e 615 687
e 615 692
e 615 695
e 615 697
e 615 699
e 615 701
e 615 703
e 615 704
e 615 707
e 615 713
e 615 716
e 615 717
e 615 718
e 615 720
e 615 725
e 615 726
e 615 727
e 615 729
e 615 735
e 615 737
e 615 738
e 615 739
e 615 740
e 615 741
e 615 743
e 615 744
e 615 745
e 615 746
e 615 750
e 615 751
e 615 752
e 615 754
e 615 755
e 615 757
e 615 759
e 615 760
e 615 761
e 615 764
e 615 768
e 615 769
e 615 772
e 615 773
e 615 774
e 615 775
e 615 778
e 615 779
e 615 780
e 615 781
e 615 782
e 615 785
e 615 786
e 615 787
e 615 789
e 615 790
e 615 794
e 615 796
e 615 799
e 615 800
e 615 802
e 615 803
e 615 804
e 615 806
e 615 812
e 615 813
e 615 814
e 615 816
e 615 819
e 615 820
e 615 821
e 615 822
e 615 824
e 615 825
e 615 827
e 615 828
e 615 829
e 615 830
e 615 831
e 615 832
e 615 833
e 615 835
e 615 836
e 615 837
e 615 839
e 615 840
e 615 841
e 615 842
e 615 844
e 615 845
e 615 846
e 615 849
e 615 850
e 615 851
e 615 852
e 615 853
e 615 855
e 616 617
e 616 618
e 616 619
e 616 621
e 616 622
e 616 623
e 616 624
e 616 625
e 616 626
e 616 627
e 616 628
e 616 629
e 616 631
e 616 633
e 616 637
e 616 640
e 616 641
e 616 642
e 616 643
e 616 644
e 616 645
e 616 646
e 616 647
e 616 648
e 616 654
e 616 657
e 616 659
e 616 660
e 616 661
e 616 664
e 616 666
e 616 667
e 616 668
e 616 672
e 616 675
e 616 676
e 616 679
e 616 680
e 616 686
e 616 687
e 616 688
e 616 691
e 616 692
e 616 695
e 616 697
e 616 699
e 616 701
e 616 702
e 616 703
e 616 704
e 616 705
e 616 707
e 616 708
e 616 709
e 616 710
e 616 713
e 616 714
e 616 715
e 616 716
e 616 717
e 616 719
e 616 722
e 616 723
e 616 724
e 616 726
e 616 727
e 616 728
e 616 736
e 616 737
e 616 738
e 616 739
e 616 740
e 616 741
e 616 742
e 616 744
e 616 745
e 616 748
e 616 751
e 616 753
e 616 754
e 616 755
e 616 756
e 616 757
e 616 759
e 616 761
e 616 762
e 616 763
e 616 764
e 616 768
e 616 769
e 616 774
e 616 775
e 616 776
e 616 778
e 616 779
e 616 780
e 616 781
e 616 782
e 616 784
e 616 787
e 616 790
e 616 794
e 616 796
e 616 799
e 616 802
e 616 804
e 616 805
e 616 806
e 616 807
e 616 809
e 616 811
e 616 812
e 616 813
e 616 814
e 616 816
e 616 817
e 616 821
e 616 825
e 616 826
e 616 827
e 616 828
e 616 829
e 616 830
e 616 831
e 616 832
e 616 833
e 616 837
e 616 839
e 616 841
e 616 842
e 616 846
e 616 849
e 616 852
e 617 619
e 617 622
e 617 623
e 617 626
e 617 642
e 617 657
e 617 692
e 617 707
e 617 736
e 617 763
e 617 769
e 617 778
e 617 807
e 617 809
e 617 817
e 617 829
e 617 839
e 618 621
e 618 623
e 618 627
e 618 686
e 618 687
e 618 740
e 618 744
e 618 755
e 618 774
e 618 790
e 618 799
e 619 622
e 619 623
e 619 626
e 619 642
e 619 657
e 619 692
e 619 707
e 619 736
e 619 763
e 619 769
e 619 778
e 619 807
e 619 809
e 619 817
e 619 829
e 619 839
e 620 623
e 620 627
e 620 629
e 620 642
e 620 647
e 620 656
e 620 679
e 620 745
e 620 760
e 620 782
e 620 787
e 620 799
e 620 803
e 620 819
e 620 820
e 620 832
e 620 844
e 620 845
e 620 850
e 621 623
e 621 627
e 621 686
e 621 687
e 621 740
e 621 744
e 621 755
e 621 774
e 621 790
e 621 799
e 622 623
e 622 626
e 622 629
e 622 635
e 622 638
e 622 642
e 622 657
e 622 672
e 622 674
e 622 678
e 622 679
e 622 687
e 622 692
e 622 701
e 622 707
e 622 722
e 622 736
e 622 741
e 622 744
e 622 752
e 622 757
e 622 763
e 622 769
e 622 770
e 622 778
e 622 799
e 622 807
e 622 809
e 622 815
e 622 817
e 622 818
e 622 829
e 622 833
e 622 837
e 622 839
e 622 842
e 622 850
e 622 853
e 623 626
e 623 627
e 623 629
e 623 641
e 623 642
e 623 645
e 623 646
e 623 647
e 623 648
e 623 650
e 623 654
e 623 656
e 623 657
e 623 661
e 623 670
e 623 672
e 623 673
e 623 675
e 623 676
e 623 679
e 623 682
e 623 685
e 623 686
e 623 687
e 623 692
e 623 693
e 623 695
e 623 699
e 623 704
e 623 706
e 623 707
e 623 709
e 623 711
e 623 713
e 623 721
e 623 724
e 623 726
e 623 732
e 623 735
e 623 736
e 623 737
e 623 739
e 623 740
e 623 741
e 623 742
e 623 744
e 623 745
e 623 748
e 623 751
e 623 753
e 623 754
e 623 755
e 623 759
e 623 760
e 623 763
e 623 764
e 623 765
e 623 766
e 623 768
e 623 769
e 623 771
e 623 774
e 623 775
e 623 776
e 623 778
e 623 780
e 623 782
e 623 785
e 623 787
e 623 788
e 623 790
e 623 794
e 623 799
e 623 802
e 623 803
e 623 807
e 623 808
e 623 809
e 623 810
e 623 815
e 623 816
e 623 817
e 623 819
e 623 820
e 623 821
e 623 822
e 623 823
e 623 827
e 623 829
e 623 830
e 623 831
e 623 832
e 623 834
e 623 835
e 623 836
e 623 837
e 623 838
e 623 839
e 623 840
e 623 841
e 623 842
e 623 844
e 623 845
e 623 848
e 623 850
e 623 851
e 623 855
e 624 626
e 624 628
e 624 629
e 624 633
e 624 642
e 624 647
e 624 654
e 624 660
e 624 661
e 624 667
e 624 669
e 624 672
e 624 674
e 624 676
e 624 679
e 624 687
e 624 691
e 624 697
e 624 703
e 624 707
e 624 717
e 624 721
e 624 722
e 624 727
e 624 738
e 624 741
e 624 742
e 624 745
e 624 757
e 624 761
e 624 765
e 624 768
e 624 769
e 624 770
e 624 778
e 624 794
e 624 796
e 624 799
e 624 800
e 624 805
e 624 806
e 624 812
e 624 813
e 624 814
e 624 824
e 624 825
e 624 826
e 624 828
e 624 829
e 624 830
e 624 832
e 624 835
e 624 836
e 624 846
e 624 848
e 624 850
e 625 627
e 625 639
e 625 641
e 625 642
e 625 657
e 625 680
e 625 687
e 625 695
e 625 701
e 625 704
e 625 714
e 625 716
e 625 724
e 625 725
e 625 735
e 625 740
e 625 741
e 625 744
e 625 746
e 625 751
e 625 757
e 625 769
e 625 772
e 625 773
e 625 781
e 625 782
e 625 794
e 625 804
e 625 812
e 625 814
e 625 825
e 625 831
e 626 627
e 626 633
e 626 642
e 626 657
e 626 660
e 626 670
e 626 692
e 626 703
e 626 704
e 626 707
e 626 720
e 626 736
e 626 740
e 626 741
e 626 745
e 626 757
e 626 758
e 626 761
e 626 763
e 626 768
e 626 769
e 626 774
e 626 778
e 626 780
e 626 794
e 626 795
e 626 805
e 626 807
e 626 809
e 626 817
e 626 827
e 626 828
e 626 829
e 626 838
e 626 839
e 626 853
e 627 629
e 627 633
e 627 636
e 627 641
e 627 642
e 627 644
e 627 647
e 627 649
e 627 650
e 627 653
e 627 654
e 627 656
e 627 657
e 627 660
e 627 663
e 627 665
e 627 668
e 627 670
e 627 672
e 627 675
e 627 676
e 627 677
e 627 679
e 627 680
e 627 686
e 627 687
e 627 688
e 627 690
e 627 691
e 627 692
e 627 695
e 627 697
e 627 698
e 627 699
e 627 701
e 627 704
e 627 706
e 627 707
e 627 708
e 627 709
e 627 712
e 627 714
e 627 715
e 627 716
e 627 717
e 627 720
e 627 721
e 627 723
e 627 724
e 627 725
e 627 727
e 627 731
e 627 734
e 627 735
e 627 736
e 627 737
e 627 738
e 627 739
e 627 740
e 627 741
e 627 742
e 627 744
e 627 745
e 627 748
e 627 751
e 627 752
e 627 753
e 627 754
e 627 755
e 627 757
e 627 758
e 627 759
e 627 760
e 627 764
e 627 767
e 627 768
e 627 769
e 627 770
e 627 771
e 627 774
e 627 775
e 627 776
e 627 777
e 627 778
e 627 779
e 627 780
e 627 781
e 627 782
e 627 785
e 627 787
e 627 788
e 627 790
e 627 794
e 627 795
e 627 796
e 627 798
e 627 799
e 627 800
e 627 801
e 627 803
e 627 805
e 627 807
e 627 808
e 627 810
e 627 811
e 627 812
e 627 813
e 627 814
e 627 815
e 627 816
e 627 818
e 627 819
e 627 820
e 627 822
e 627 823
e 627 824
e 627 825
e 627 826
e 627 827
e 627 828
e 627 829
e 627 830
e 627 832
e 627 833
e 627 834
e 627 835
e 627 836
e 627 838
e 627 839
e 627 840
e 627 843
e 627 844
e 627 845
e 627 847
e 627 848
e 627 850
e 627 851
e 627 853
e 627 855
e 628 629
e 628 633
e 628 642
e 628 647
e 628 654
e 628 657
e 628 658
e 628 660
e 628 667
e 628 668
e 628 669
e 628 672
e 628 674
e 628 676
e 628 677
e 628 687
e 628 688
e 628 691
e 628 694
e 628 697
e 628 699
e 628 703
e 628 707
e 628 709
e 628 722
e 628 730
e 628 732
e 628 740
e 628 741
e 628 742
e 628 744
e 628 748
e 628 753
e 628 757
e 628 759
e 628 769
e 628 774
e 628 796
e 628 797
e 628 801
e 628 803
e 628 805
e 628 807
e 628 808
e 628 811
e 628 840
e 628 846
e 628 848
e 629 633
e 629 635
e 629 638
e 629 642
e 629 647
e 629 654
e 629 656
e 629 657
e 629 660
e 629 666
e 629 672
e 629 674
e 629 675
e 629 676
e 629 678
e 629 679
e 629 687
e 629 691
e 629 695
e 629 707
e 629 710
e 629 722
e 629 739
e 629 741
e 629 742
e 629 744
e 629 745
e 629 751
e 629 752
e 629 757
e 629 759
e 629 760
e 629 770
e 629 779
e 629 780
e 629 782
e 629 785
e 629 787
e 629 796
e 629 797
e 629 798
e 629 799
e 629 800
e 629 803
e 629 805
e 629 807
e 629 810
e 629 819
e 629 820
e 629 822
e 629 824
e 629 832
e 629 833
e 629 835
e 629 836
e 629 837
e 629 843
e 629 844
e 629 845
e 629 846
e 629 848
e 629 849
e 629 850
e 629 851
e 629 852
e 629 855
e 630 633
e 630 642
e 630 647
e 630 669
e 630 670
e 630 674
e 630 695
e 630 704
e 630 720
e 630 729
e 630 742
e 630 751
e 630 757
e 630 762
e 630 769
e 630 770
e 630 774
e 630 784
e 630 797
e 630 807
e 630 833
e 630 845
e 630 846
e 630 849
e 630 852
e 630 853
e 631 633
e 631 641
e 631 642
e 631 654
e 631 659
e 631 666
e 631 676
e 631 687
e 631 691
e 631 707
e 631 709
e 631 710
e 631 717
e 631 719
e 631 741
e 631 742
e 631 757
e 631 777
e 631 796
e 631 799
e 631 817
e 631 826
e 632 642
e 632 647
e 632 670
e 632 671
e 632 672
e 632 704
e 632 720
e 632 721
e 632 742
e 632 751
e 632 770
e 632 784
e 632 833
e 632 846
e 632 849
e 632 852
e 632 853
e 633 642
e 633 647
e 633 654
e 633 657
e 633 660
e 633 668
e 633 669
e 633 670
e 633 671
e 633 672
e 633 674
e 633 676
e 633 679
e 633 687
e 633 691
e 633 700
e 633 704
e 633 707
e 633 709
e 633 720
e 633 721
e 633 722
e 633 741
e 633 742
e 633 748
e 633 749
e 633 757
e 633 758
e 633 762
e 633 769
e 633 770
e 633 773
e 633 774
e 633 780
e 633 784
e 633 789
e 633 795
e 633 796
e 633 797
e 633 799
e 633 805
e 633 807
e 633 811
e 633 817
e 633 826
e 633 827
e 633 832
e 633 838
e 633 846
e 633 853
e 633 855
e 634 695
e 634 696
e 634 765
e 635 638
e 635 647
e 635 657
e 635 672
e 635 674
e 635 678
e 635 679
e 635 687
e 635 722
e 635 741
e 635 742
e 635 744
e 635 751
e 635 752
e 635 757
e 635 770
e 635 780
e 635 797
e 635 807
e 635 810
e 635 824
e 635 833
e 635 837
e 635 849
e 635 850
e 635 852
e 636 672
e 636 690
e 636 699
e 636 704
e 636 721
e 636 734
e 636 741
e 636 770
e 636 771
e 636 788
e 636 799
e 636 801
e 636 803
e 636 808
e 636 810
e 636 818
e 636 824
e 636 834
e 637 647
e 637 665
e 637 667
e 637 675
e 637 679
e 637 687
e 637 692
e 637 701
e 637 702
e 637 704
e 637 705
e 637 708
e 637 716
e 637 744
e 637 750
e 637 755
e 637 778
e 637 779
e 637 804
e 637 833
e 637 849
e 638 652
e 638 657
e 638 672
e 638 673
e 638 674
e 638 678
e 638 679
e 638 681
e 638 683
e 638 684
e 638 687
e 638 689
e 638 693
e 638 701
e 638 703
e 638 707
e 638 709
e 638 712
e 638 722
e 638 733
e 638 741
e 638 744
e 638 747
e 638 752
e 638 757
e 638 770
e 638 796
e 638 811
e 638 818
e 638 833
e 638 837
e 638 840
e 638 842
e 638 843
e 638 850
e 639 642
e 639 655
e 639 657
e 639 676
e 639 679
e 639 695
e 639 701
e 639 718
e 639 720
e 639 725
e 639 729
e 639 735
e 639 742
e 639 744
e 639 746
e 639 749
e 639 751
e 639 769
e 639 772
e 639 773
e 639 786
e 639 789
e 639 804
e 639 812
e 639 831
e 639 833
e 639 845
e 639 846
e 639 849
e 639 853
e 640 641
e 640 643
e 640 654
e 640 655
e 640 664
e 640 674
e 640 679
e 640 688
e 640 707
e 640 717
e 640 719
e 640 739
e 640 742
e 640 744
e 640 756
e 640 757
e 640 762
e 640 774
e 640 784
e 640 804
e 640 807
e 640 809
e 640 812
e 641 642
e 641 643
e 641 647
e 641 654
e 641 657
e 641 659
e 641 661
e 641 664
e 641 666
e 641 672
e 641 674
e 641 676
e 641 679
e 641 687
e 641 688
e 641 695
e 641 698
e 641 704
e 641 707
e 641 710
e 641 714
e 641 715
e 641 716
e 641 717
e 641 719
e 641 724
e 641 725
e 641 728
e 641 731
e 641 735
e 641 739
e 641 740
e 641 741
e 641 742
e 641 744
e 641 745
e 641 751
e 641 756
e 641 757
e 641 759
e 641 762
e 641 763
e 641 767
e 641 769
e 641 773
e 641 774
e 641 775
e 641 778
e 641 781
e 641 782
e 641 784
e 641 785
e 641 794
e 641 796
e 641 798
e 641 799
e 641 801
e 641 804
e 641 807
e 641 809
e 641 810
e 641 814
e 641 815
e 641 816
e 641 817
e 641 821
e 641 823
e 641 824
e 641 825
e 641 828
e 641 831
e 641 833
e 641 837
e 641 843
e 641 844
e 641 850
e 641 851
e 641 852
e 641 855
e 642 647
e 642 653
e 642 654
e 642 656
e 642 657
e 642 659
e 642 660
e 642 661
e 642 662
e 642 664
e 642 665
e 642 666
e 642 667
e 642 668
e 642 669
e 642 670
e 642 671
e 642 672
e 642 673
e 642 674
e 642 675
e 642 676
e 642 677
e 642 679
e 642 680
e 642 682
e 642 685
e 642 687
e 642 688
e 642 691
e 642 692
e 642 693
e 642 695
e 642 699
e 642 700
e 642 701
e 642 703
e 642 704
e 642 707
e 642 709
e 642 710
e 642 711
e 642 714
e 642 715
e 642 716
e 642 717
e 642 718
e 642 719
e 642 720
e 642 721
e 642 722
e 642 723
e 642 725
e 642 728
e 642 729
e 642 731
e 642 732
e 642 735
e 642 736
e 642 737
e 642 739
e 642 740
e 642 741
e 642 742
e 642 743
e 642 744
e 642 745
e 642 746
e 642 748
e 642 749
e 642 750
e 642 751
e 642 752
e 642 753
e 642 755
e 642 756
e 642 757
e 642 758
e 642 759
e 642 760
e 642 761
e 642 762
e 642 763
e 642 764
e 642 765
e 642 766
e 642 768
e 642 769
e 642 770
e 642 771
e 642 772
e 642 773
e 642 774
e 642 776
e 642 777
e 642 778
e 642 779
e 642 780
e 642 781
e 642 782
e 642 783
e 642 784
e 642 785
e 642 786
e 642 787
e 642 788
e 642 789
e 642 790
e 642 791
e 642 792
e 642 793
e 642 794
e 642 795
e 642 796
e 642 797
e 642 798
e 642 799
e 642 800
e 642 802
e 642 803
e 642 804
e 642 805
e 642 806
e 642 807
e 642 808
e 642 809
e 642 810
e 642 811
e 642 812
e 642 813
e 642 814
e 642 815
e 642 817
e 642 819
e 642 820
e 642 822
e 642 823
e 642 824
e 642 825
e 642 826
e 642 827
e 642 829
e 642 831
e 642 832
e 642 833
e 642 834
e 642 835
e 642 836
e 642 838
e 642 839
e 642 840
e 642 841
e 642 842
e 642 843
e 642 844
e 642 845
e 642 846
e 642 847
e 642 848
e 642 849
e 642 850
e 642 851
e 642 852
e 642 853
e 642 855
e 643 654
e 643 659
e 643 664
e 643 679
e 643 687
e 643 688
e 643 707
e 643 710
e 643 717
e 643 719
e 643 739
e 643 742
e 643 744
e 643 756
e 643 762
e 643 774
e 643 784
e 643 804
e 643 807
e 643 809
e 644 647
e 644 661
e 644 679
e 644 697
e 644 701
e 644 708
e 644 714
e 644 715
e 644 723
e 644 724
e 644 740
e 644 742
e 644 744
e 644 751
e 644 759
e 644 764
e 644 774
e 644 777
e 644 778
e 644 779
e 644 796
e 644 806
e 644 812
e 644 833
e 645 646
e 645 647
e 645 648
e 645 679
e 645 699
e 645 713
e 645 751
e 645 754
e 645 778
e 645 802
e 645 821
e 645 837
e 645 841
e 646 647
e 646 648
e 646 679
e 646 699
e 646 713
e 646 751
e 646 754
e 646 778
e 646 802
e 646 821
e 646 837
e 646 841
e 647 648
e 647 654
e 647 656
e 647 657
e 647 659
e 647 661
e 647 663
e 647 665
e 647 666
e 647 667
e 647 668
e 647 669
e 647 670
e 647 671
e 647 672
e 647 673
e 647 674
e 647 675
e 647 676
e 647 679
e 647 682
e 647 685
e 647 686
e 647 687
e 647 688
e 647 690
e 647 692
e 647 693
e 647 694
e 647 695
e 647 696
e 647 697
e 647 698
e 647 699
e 647 700
e 647 701
e 647 702
e 647 703
e 647 704
e 647 705
e 647 707
e 647 708
e 647 709
e 647 710
e 647 711
e 647 712
e 647 713
e 647 715
e 647 716
e 647 717
e 647 719
e 647 720
e 647 721
e 647 722
e 647 723
e 647 725
e 647 726
e 647 728
e 647 730
e 647 731
e 647 732
e 647 734
e 647 735
e 647 738
e 647 739
e 647 741
e 647 742
e 647 744
e 647 745
e 647 747
e 647 748
e 647 749
e 647 751
e 647 752
e 647 754
e 647 755
e 647 757
e 647 759
e 647 760
e 647 762
e 647 765
e 647 766
e 647 767
e 647 769
e 647 770
e 647 771
e 647 773
e 647 774
e 647 775
e 647 778
e 647 779
e 647 780
e 647 782
e 647 783
e 647 784
e 647 785
e 647 787
e 647 788
e 647 789
e 647 790
e 647 791
e 647 792
e 647 793
e 647 796
e 647 797
e 647 798
e 647 799
e 647 801
e 647 802
e 647 803
e 647 807
e 647 808
e 647 810
e 647 811
e 647 814
e 647 815
e 647 816
e 647 817
e 647 818
e 647 819
e 647 820
e 647 821
e 647 822
e 647 823
e 647 824
e 647 825
e 647 826
e 647 831
e 647 832
e 647 833
e 647 834
e 647 837
e 647 838
e 647 839
e 647 840
e 647 841
e 647 842
e 647 843
e 647 844
e 647 845
e 647 846
e 647 847
e 647 848
e 647 849
e 647 850
e 647 851
e 647 852
e 647 853
e 647 855
e 648 679
e 648 699
e 648 713
e 648 751
e 648 754
e 648 778
e 648 802
e 648 821
e 648 837
e 648 841
e 649 706
e 649 717
e 649 760
e 649 769
e 649 776
e 649 787
e 649 800
e 649 813
e 649 824
e 649 829
e 649 830
e 649 832
e 649 836
e 649 848
e 649 850
e 650 706
e 650 721
e 650 735
e 650 736
e 650 742
e 650 744
e 650 745
e 650 769
e 650 778
e 650 799
e 650 822
e 650 827
e 650 830
e 650 835
e 650 836
e 650 848
e 651 667
e 651 668
e 651 766
e 651 767
e 651 779
e 651 806
e 651 816
e 651 821
e 651 823
e 651 828
e 651 852
e 652 657
e 652 672
e 652 681
e 652 683
e 652 684
e 652 689
e 652 703
e 652 707
e 652 709
e 652 712
e 652 733
e 652 741
e 652 747
e 652 752
e 652 796
e 652 811
e 652 818
e 652 840
e 652 842
e 652 843
e 653 672
e 653 699
e 653 704
e 653 721
e 653 734
e 653 741
e 653 744
e 653 745
e 653 754
e 653 770
e 653 771
e 653 782
e 653 783
e 653 799
e 653 808
e 653 814
e 653 818
e 653 824
e 653 825
e 653 826
e 653 834
e 653 847
e 654 657
e 654 659
e 654 660
e 654 662
e 654 664
e 654 669
e 654 670
e 654 672
e 654 673
e 654 674
e 654 675
e 654 676
e 654 679
e 654 682
e 654 685
e 654 686
e 654 687
e 654 688
e 654 691
e 654 693
e 654 695
e 654 698
e 654 704
e 654 707
e 654 709
e 654 710
e 654 714
e 654 715
e 654 716
e 654 717
e 654 719
e 654 721
e 654 722
e 654 724
e 654 728
e 654 731
e 654 735
e 654 739
e 654 740
e 654 741
e 654 742
e 654 744
e 654 745
e 654 752
e 654 756
e 654 757
e 654 762
e 654 763
e 654 767
e 654 769
e 654 771
e 654 774
e 654 779
e 654 780
e 654 782
e 654 783
e 654 784
e 654 788
e 654 791
e 654 792
e 654 793
e 654 796
e 654 797
e 654 798
e 654 799
e 654 800
e 654 801
e 654 802
e 654 803
e 654 804
e 654 805
e 654 807
e 654 809
e 654 815
e 654 816
e 654 817
e 654 819
e 654 820
e 654 823
e 654 824
e 654 826
e 654 828
e 654 838
e 654 839
e 654 841
e 654 843
e 654 844
e 654 846
e 654 847
e 654 848
e 654 851
e 654 855
e 655 674
e 655 676
e 655 679
e 655 695
e 655 701
e 655 718
e 655 720
e 655 729
e 655 742
e 655 749
e 655 751
e 655 757
e 655 769
e 655 773
e 655 786
e 655 789
e 655 812
e 655 833
e 655 845
e 655 846
e 655 849
e 655 853
e 656 657
e 656 665
e 656 675
e 656 676
e 656 679
e 656 692
e 656 701
e 656 716
e 656 725
e 656 744
e 656 745
e 656 755
e 656 760
e 656 778
e 656 782
e 656 787
e 656 790
e 656 799
e 656 803
e 656 819
e 656 820
e 656 832
e 656 839
e 656 844
e 656 845
e 656 850
e 657 658
e 657 660
e 657 661
e 657 663
e 657 665
e 657 668
e 657 670
e 657 672
e 657 673
e 657 675
e 657 676
e 657 677
e 657 679
e 657 681
e 657 683
e 657 684
e 657 685
e 657 688
e 657 689
e 657 692
e 657 693
e 657 694
e 657 695
e 657 696
e 657 697
e 657 698
e 657 699
e 657 701
e 657 703
e 657 704
e 657 705
e 657 707
e 657 708
e 657 709
e 657 711
e 657 712
e 657 716
e 657 718
e 657 720
e 657 721
e 657 725
e 657 726
e 657 729
e 657 730
e 657 732
e 657 733
e 657 735
e 657 736
e 657 739
e 657 741
e 657 742
e 657 743
e 657 744
e 657 745
e 657 746
e 657 747
e 657 748
e 657 750
e 657 751
e 657 752
e 657 755
e 657 757
e 657 758
e 657 759
e 657 760
e 657 763
e 657 765
e 657 769
e 657 770
e 657 772
e 657 773
e 657 774
e 657 775
e 657 778
e 657 779
e 657 780
e 657 785
e 657 786
e 657 788
e 657 789
e 657 790
e 657 795
e 657 796
e 657 797
e 657 798
e 657 799
e 657 801
e 657 803
e 657 804
e 657 805
e 657 807
e 657 809
e 657 810
e 657 811
e 657 812
e 657 815
e 657 816
e 657 817
e 657 818
e 657 821
e 657 822
e 657 823
e 657 824
e 657 827
e 657 829
e 657 831
e 657 833
e 657 835
e 657 836
e 657 837
e 657 838
e 657 839
e 657 840
e 657 842
e 657 843
e 657 844
e 657 845
e 657 846
e 657 849
e 657 850
e 657 851
e 657 852
e 657 853
e 657 855
e 658 668
e 658 677
e 658 688
e 658 691
e 658 703
e 658 707
e 658 709
e 658 730
e 658 732
e 658 740
e 658 742
e 658 748
e 658 753
e 658 759
e 658 801
e 658 803
e 658 811
e 658 840
e 659 664
e 659 666
e 659 679
e 659 687
e 659 688
e 659 707
e 659 710
e 659 717
e 659 719
e 659 728
e 659 739
e 659 742
e 659 756
e 659 757
e 659 796
e 659 799
e 659 807
e 659 809
e 659 817
e 659 843
e 660 670
e 660 672
e 660 676
e 660 687
e 660 691
e 660 704
e 660 707
e 660 720
e 660 722
e 660 758
e 660 769
e 660 774
e 660 780
e 660 795
e 660 796
e 660 805
e 660 838
e 660 846
e 660 853
e 661 672
e 661 676
e 661 679
e 661 687
e 661 695
e 661 697
e 661 698
e 661 701
e 661 702
e 661 704
e 661 705
e 661 707
e 661 708
e 661 709
e 661 711
e 661 715
e 661 716
e 661 723
e 661 726
e 661 727
e 661 738
e 661 739
e 661 742
e 661 744
e 661 745
e 661 751
e 661 757
e 661 759
e 661 765
e 661 769
e 661 775
e 661 778
e 661 779
e 661 780
e 661 782
e 661 783
e 661 785
e 661 796
e 661 798
e 661 799
e 661 806
e 661 807
e 661 810
e 661 812
e 661 813
e 661 814
e 661 815
e 661 816
e 661 821
e 661 824
e 661 825
e 661 826
e 661 828
e 661 831
e 661 833
e 661 834
e 661 837
e 661 842
e 661 844
e 661 847
e 661 850
e 661 851
e 661 852
e 661 855
e 662 704
e 662 715
e 662 721
e 662 744
e 662 780
e 662 782
e 662 783
e 662 791
e 662 792
e 662 793
e 662 802
e 662 803
e 662 819
e 662 820
e 662 839
e 662 841
e 662 847
e 663 672
e 663 673
e 663 694
e 663 696
e 663 697
e 663 699
e 663 703
e 663 709
e 663 712
e 663 716
e 663 730
e 663 731
e 663 742
e 663 744
e 663 747
e 663 752
e 663 757
e 663 770
e 663 796
e 663 807
e 663 811
e 663 822
e 663 824
e 663 850
e 664 674
e 664 679
e 664 687
e 664 688
e 664 704
e 664 707
e 664 710
e 664 717
e 664 719
e 664 739
e 664 742
e 664 744
e 664 756
e 664 762
e 664 774
e 664 784
e 664 804
e 664 807
e 664 809
e 665 667
e 665 675
e 665 676
e 665 687
e 665 692
e 665 701
e 665 702
e 665 704
e 665 716
e 665 720
e 665 725
e 665 729
e 665 743
e 665 744
e 665 746
e 665 750
e 665 755
e 665 760
e 665 769
e 665 778
e 665 790
e 665 804
e 665 833
e 665 839
e 665 845
e 666 676
e 666 688
e 666 710
e 666 717
e 666 719
e 666 728
e 666 741
e 666 742
e 666 757
e 666 777
e 666 796
e 666 799
e 666 817
e 666 843
e 667 668
e 667 669
e 667 672
e 667 674
e 667 675
e 667 679
e 667 686
e 667 687
e 667 688
e 667 694
e 667 697
e 667 699
e 667 701
e 667 702
e 667 704
e 667 705
e 667 707
e 667 708
e 667 716
e 667 720
e 667 721
e 667 722
e 667 729
e 667 741
e 667 742
e 667 743
e 667 744
e 667 746
e 667 751
e 667 755
e 667 757
e 667 765
e 667 766
e 667 767
e 667 769
e 667 770
e 667 778
e 667 779
e 667 796
e 667 806
e 667 808
e 667 814
e 667 816
e 667 821
e 667 823
e 667 825
e 667 826
e 667 828
e 667 833
e 667 848
e 667 849
e 667 852
e 668 677
e 668 679
e 668 686
e 668 688
e 668 691
e 668 695
e 668 703
e 668 707
e 668 709
e 668 730
e 668 732
e 668 742
e 668 748
e 668 751
e 668 752
e 668 757
e 668 766
e 668 767
e 668 778
e 668 779
e 668 780
e 668 796
e 668 799
e 668 801
e 668 803
e 668 806
e 668 811
e 668 814
e 668 816
e 668 821
e 668 823
e 668 825
e 668 826
e 668 827
e 668 828
e 668 832
e 668 833
e 668 835
e 668 836
e 668 840
e 668 852
e 669 672
e 669 674
e 669 676
e 669 687
e 669 707
e 669 721
e 669 722
e 669 757
e 669 765
e 669 769
e 669 770
e 669 774
e 669 796
e 669 797
e 669 807
e 669 848
e 670 671
e 670 672
e 670 673
e 670 674
e 670 676
e 670 685
e 670 693
e 670 695
e 670 700
e 670 701
e 670 704
e 670 718
e 670 720
e 670 721
e 670 729
e 670 742
e 670 744
e 670 749
e 670 751
e 670 757
e 670 758
e 670 762
e 670 769
e 670 770
e 670 773
e 670 774
e 670 780
e 670 784
e 670 788
e 670 789
e 670 795
e 670 797
e 670 805
e 670 815
e 670 823
e 670 833
e 670 838
e 670 840
e 670 843
e 670 845
e 670 846
e 670 849
e 670 851
e 670 852
e 670 853
e 670 855
e 671 672
e 671 674
e 671 704
e 671 720
e 671 721
e 671 742
e 671 749
e 671 751
e 671 757
e 671 769
e 671 770
e 671 773
e 671 774
e 671 784
e 671 797
e 671 833
e 671 846
e 671 849
e 671 852
e 671 853
e 672 673
e 672 674
e 672 676
e 672 678
e 672 679
e 672 681
e 672 683
e 672 684
e 672 685
e 672 687
e 672 689
e 672 690
e 672 691
e 672 693
e 672 694
e 672 695
e 672 696
e 672 697
e 672 698
e 672 699
e 672 701
e 672 703
e 672 704
e 672 707
e 672 709
e 672 712
e 672 716
e 672 720
e 672 721
e 672 722
e 672 730
e 672 731
e 672 733
e 672 734
e 672 741
e 672 742
e 672 744
e 672 745
e 672 747
e 672 749
e 672 751
e 672 752
e 672 754
e 672 757
e 672 765
e 672 767
e 672 769
e 672 770
e 672 771
e 672 773
e 672 774
e 672 780
e 672 782
e 672 784
e 672 788
e 672 796
e 672 797
e 672 798
e 672 799
e 672 801
e 672 803
e 672 805
e 672 807
e 672 808
e 672 810
e 672 811
e 672 815
e 672 816
e 672 818
e 672 821
e 672 823
e 672 824
e 672 825
e 672 828
e 672 833
e 672 834
e 672 837
e 672 838
e 672 840
e 672 842
e 672 843
e 672 844
e 672 846
e 672 847
e 672 848
e 672 849
e 672 850
e 672 851
e 672 852
e 672 853
e 672 855
e 673 676
e 673 682
e 673 685
e 673 689
e 673 693
e 673 694
e 673 696
e 673 697
e 673 699
e 673 701
e 673 703
e 673 704
e 673 709
e 673 712
e 673 721
e 673 730
e 673 742
e 673 744
e 673 747
e 673 752
e 673 757
e 673 758
e 673 770
e 673 771
e 673 780
e 673 788
e 673 795
e 673 796
e 673 799
e 673 805
e 673 811
e 673 815
e 673 823
e 673 838
e 673 840
e 673 843
e 673 851
e 673 853
e 673 855
e 674 676
e 674 678
e 674 679
e 674 687
e 674 700
e 674 701
e 674 704
e 674 707
e 674 721
e 674 722
e 674 741
e 674 744
e 674 749
e 674 752
e 674 757
e 674 765
e 674 769
e 674 770
e 674 773
e 674 774
e 674 796
e 674 797
e 674 804
e 674 807
e 674 812
e 674 833
e 674 837
e 674 842
e 674 848
e 674 850
e 675 676
e 675 679
e 675 687
e 675 688
e 675 692
e 675 695
e 675 701
e 675 702
e 675 704
e 675 705
e 675 708
e 675 715
e 675 716
e 675 717
e 675 718
e 675 721
e 675 725
e 675 731
e 675 735
e 675 739
e 675 741
e 675 742
e 675 744
e 675 755
e 675 759
e 675 760
e 675 769
e 675 772
e 675 774
e 675 777
e 675 778
e 675 779
e 675 781
e 675 782
e 675 785
e 675 786
e 675 789
e 675 790
e 675 791
e 675 792
e 675 793
e 675 796
e 675 798
e 675 799
e 675 803
e 675 807
e 675 811
e 675 819
e 675 820
e 675 822
e 675 824
e 675 826
e 675 829
e 675 832
e 675 833
e 675 835
e 675 836
e 675 839
e 675 841
e 675 844
e 675 845
e 675 846
e 675 847
e 675 848
e 675 849
e 675 851
e 675 853
e 675 855
e 676 679
e 676 682
e 676 685
e 676 687
e 676 691
e 676 692
e 676 693
e 676 695
e 676 701
e 676 704
e 676 705
e 676 707
e 676 708
e 676 709
e 676 710
e 676 711
e 676 715
e 676 716
e 676 718
e 676 720
e 676 721
e 676 722
e 676 725
e 676 726
e 676 729
e 676 732
e 676 735
e 676 739
e 676 741
e 676 742
e 676 743
e 676 744
e 676 745
e 676 746
e 676 748
e 676 749
e 676 750
e 676 751
e 676 755
e 676 757
e 676 759
e 676 760
e 676 762
e 676 765
e 676 766
e 676 769
e 676 770
e 676 771
e 676 772
e 676 773
e 676 774
e 676 775
e 676 777
e 676 778
e 676 779
e 676 780
e 676 782
e 676 784
e 676 785
e 676 786
e 676 788
e 676 789
e 676 790
e 676 791
e 676 792
e 676 793
e 676 796
e 676 797
e 676 799
e 676 803
e 676 804
e 676 805
e 676 807
e 676 808
e 676 810
e 676 812
e 676 815
e 676 816
e 676 817
e 676 819
e 676 820
e 676 822
e 676 823
e 676 824
e 676 826
e 676 831
e 676 833
e 676 834
e 676 835
e 676 837
e 676 838
e 676 839
e 676 840
e 676 841
e 676 842
e 676 844
e 676 845
e 676 846
e 676 847
e 676 849
e 676 851
e 676 852
e 676 853
e 676 855
e 677 679
e 677 680
e 677 687
e 677 688
e 677 703
e 677 704
e 677 707
e 677 709
e 677 723
e 677 730
e 677 732
e 677 740
e 677 741
e 677 742
e 677 744
e 677 748
e 677 753
e 677 757
e 677 764
e 677 776
e 677 777
e 677 779
e 677 798
e 677 801
e 677 803
e 677 806
e 677 811
e 677 826
e 677 835
e 677 840
e 678 679
e 678 687
e 678 701
e 678 707
e 678 722
e 678 741
e 678 744
e 678 752
e 678 757
e 678 770
e 678 799
e 678 815
e 678 818
e 678 833
e 678 837
e 678 842
e 678 850
e 678 853
e 679 680
e 679 686
e 679 687
e 679 688
e 679 691
e 679 695
e 679 697
e 679 699
e 679 701
e 679 702
e 679 704
e 679 705
e 679 707
e 679 708
e 679 709
e 679 710
e 679 713
e 679 714
e 679 715
e 679 716
e 679 717
e 679 718
e 679 719
e 679 720
e 679 721
e 679 722
e 679 723
e 679 724
e 679 725
e 679 727
e 679 728
e 679 729
e 679 735
e 679 738
e 679 739
e 679 740
e 679 741
e 679 742
e 679 743
e 679 744
e 679 745
e 679 746
e 679 748
e 679 749
e 679 750
e 679 751
e 679 752
e 679 754
e 679 755
e 679 756
e 679 757
e 679 760
e 679 762
e 679 763
e 679 764
e 679 766
e 679 767
e 679 769
e 679 770
e 679 772
e 679 773
e 679 774
e 679 777
e 679 778
e 679 779
e 679 780
e 679 781
e 679 782
e 679 783
e 679 784
e 679 786
e 679 787
e 679 789
e 679 790
e 679 791
e 679 792
e 679 793
e 679 796
e 679 798
e 679 799
e 679 800
e 679 802
e 679 803
e 679 804
e 679 806
e 679 807
e 679 809
e 679 811
e 679 812
e 679 813
e 679 814
e 679 815
e 679 817
e 679 818
e 679 819
e 679 820
e 679 821
e 679 823
e 679 824
e 679 825
e 679 826
e 679 827
e 679 828
e 679 829
e 679 832
e 679 833
e 679 835
e 679 836
e 679 837
e 679 839
e 679 840
e 679 841
e 679 842
e 679 844
e 679 845
e 679 846
e 679 847
e 679 849
e 679 850
e 679 853
e 680 687
e 680 701
e 680 704
e 680 709
e 680 714
e 680 716
e 680 723
e 680 724
e 680 740
e 680 741
e 680 742
e 680 744
e 680 757
e 680 764
e 680 777
e 680 779
e 680 798
e 680 806
e 681 682
e 681 683
e 681 684
e 681 689
e 681 703
e 681 704
e 681 707
e 681 733
e 681 741
e 681 747
e 681 752
e 681 796
e 681 799
e 681 811
e 681 818
e 681 840
e 681 842
e 681 843
e 682 683
e 682 684
e 682 685
e 682 703
e 682 704
e 682 707
e 682 721
e 682 733
e 682 741
e 682 742
e 682 744
e 682 747
e 682 752
e 682 771
e 682 788
e 682 796
e 682 799
e 682 811
e 682 815
e 682 818
e 682 823
e 682 838
e 682 840
e 682 842
e 682 843
e 682 851
e 682 855
e 683 684
e 683 689
e 683 703
e 683 704
e 683 707
e 683 733
e 683 741
e 683 747
e 683 752
e 683 796
e 683 799
e 683 811
e 683 818
e 683 840
e 683 842
e 683 843
e 684 689
e 684 703
e 684 704
e 684 707
e 684 733
e 684 741
e 684 747
e 684 752
e 684 796
e 684 799
e 684 811
e 684 818
e 684 840
e 684 842
e 684 843
e 685 693
e 685 704
e 685 721
e 685 742
e 685 744
e 685 771
e 685 788
e 685 799
e 685 815
e 685 823
e 685 838
e 685 851
e 685 855
e 686 687
e 686 707
e 686 713
e 686 724
e 686 740
e 686 744
e 686 745
e 686 751
e 686 754
e 686 755
e 686 757
e 686 763
e 686 766
e 686 767
e 686 774
e 686 778
e 686 790
e 686 799
e 686 807
e 686 809
e 686 814
e 686 817
e 686 821
e 686 823
e 686 825
e 686 826
e 686 841
e 687 688
e 687 691
e 687 692
e 687 697
e 687 701
e 687 702
e 687 704
e 687 705
e 687 707
e 687 708
e 687 709
e 687 710
e 687 714
e 687 715
e 687 716
e 687 717
e 687 719
e 687 721
e 687 722
e 687 723
e 687 724
e 687 727
e 687 728
e 687 738
e 687 739
e 687 740
e 687 741
e 687 742
e 687 744
e 687 745
e 687 750
e 687 752
e 687 755
e 687 756
e 687 757
e 687 761
e 687 763
e 687 764
e 687 765
e 687 770
e 687 774
e 687 777
e 687 778
e 687 779
e 687 790
e 687 796
e 687 798
e 687 799
e 687 804
e 687 805
e 687 806
e 687 807
e 687 809
e 687 812
e 687 813
e 687 814
e 687 817
e 687 825
e 687 826
e 687 828
e 687 833
e 687 837
e 687 842
e 687 846
e 687 848
e 687 849
e 687 850
e 688 694
e 688 695
e 688 697
e 688 699
e 688 703
e 688 707
e 688 710
e 688 717
e 688 719
e 688 728
e 688 730
e 688 731
e 688 732
e 688 739
e 688 741
e 688 742
e 688 744
e 688 748
e 688 756
e 688 757
e 688 762
e 688 769
e 688 774
e 688 777
e 688 781
e 688 782
e 688 784
e 688 796
e 688 799
e 688 801
e 688 803
e 688 804
e 688 807
e 688 808
e 688 809
e 688 811
e 688 817
e 688 826
e 688 829
e 688 832
e 688 840
e 688 843
e 688 848
e 689 693
e 689 703
e 689 707
e 689 733
e 689 741
e 689 747
e 689 752
e 689 796
e 689 811
e 689 818
e 689 840
e 689 842
e 689 843
e 690 699
e 690 704
e 690 721
e 690 734
e 690 741
e 690 757
e 690 770
e 690 771
e 690 788
e 690 799
e 690 801
e 690 803
e 690 808
e 690 810
e 690 818
e 690 824
e 690 834
e 691 707
e 691 709
e 691 722
e 691 730
e 691 732
e 691 740
e 691 741
e 691 742
e 691 748
e 691 753
e 691 757
e 691 759
e 691 796
e 691 799
e 691 803
e 691 805
e 691 811
e 691 817
e 691 826
e 691 827
e 691 832
e 691 846
e 692 701
e 692 704
e 692 707
e 692 716
e 692 725
e 692 736
e 692 744
e 692 750
e 692 755
e 692 760
e 692 763
e 692 769
e 692 778
e 692 790
e 692 804
e 692 807
e 692 809
e 692 817
e 692 829
e 692 839
e 692 845
e 693 704
e 693 721
e 693 742
e 693 744
e 693 752
e 693 788
e 693 815
e 693 823
e 693 838
e 693 851
e 693 855
e 694 696
e 694 697
e 694 699
e 694 703
e 694 709
e 694 712
e 694 730
e 694 741
e 694 742
e 694 744
e 694 747
e 694 752
e 694 757
e 694 770
e 694 796
e 694 808
e 694 811
e 694 848
e 695 696
e 695 698
e 695 701
e 695 704
e 695 707
e 695 711
e 695 716
e 695 717
e 695 718
e 695 720
e 695 725
e 695 729
e 695 731
e 695 732
e 695 735
e 695 739
e 695 741
e 695 742
e 695 744
e 695 746
e 695 748
e 695 749
e 695 751
e 695 752
e 695 759
e 695 762
e 695 765
e 695 766
e 695 767
e 695 769
e 695 770
e 695 772
e 695 773
e 695 777
e 695 778
e 695 779
e 695 780
e 695 781
e 695 782
e 695 784
e 695 786
e 695 789
e 695 796
e 695 798
e 695 799
e 695 800
e 695 801
e 695 803
e 695 804
e 695 807
e 695 808
e 695 810
e 695 811
e 695 812
e 695 815
e 695 816
e 695 822
e 695 823
e 695 824
e 695 825
e 695 826
e 695 827
e 695 828
e 695 829
e 695 831
e 695 832
e 695 833
e 695 834
e 695 835
e 695 836
e 695 840
e 695 842
e 695 843
e 695 844
e 695 845
e 695 846
e 695 848
e 695 849
e 695 851
e 695 852
e 695 853
e 695 855
e 696 697
e 696 699
e 696 703
e 696 709
e 696 712
e 696 730
e 696 744
e 696 747
e 696 752
e 696 757
e 696 765
e 696 770
e 696 796
e 696 811
e 697 699
e 697 701
e 697 703
e 697 708
e 697 709
e 697 712
e 697 714
e 697 715
e 697 723
e 697 724
e 697 727
e 697 730
e 697 737
e 697 738
e 697 740
e 697 741
e 697 742
e 697 744
e 697 747
e 697 751
e 697 752
e 697 757
e 697 759
e 697 768
e 697 769
e 697 770
e 697 774
e 697 775
e 697 778
e 697 779
e 697 781
e 697 782
e 697 794
e 697 796
e 697 806
e 697 808
e 697 811
e 697 812
e 697 813
e 697 814
e 697 825
e 697 826
e 697 828
e 697 830
e 697 833
e 697 848
e 698 707
e 698 716
e 698 731
e 698 741
e 698 744
e 698 751
e 698 767
e 698 798
e 698 801
e 698 807
e 698 810
e 698 815
e 698 816
e 698 821
e 698 823
e 698 824
e 698 828
e 698 837
e 698 843
e 698 844
e 698 850
e 698 852
e 699 703
e 699 704
e 699 709
e 699 712
e 699 713
e 699 721
e 699 730
e 699 734
e 699 741
e 699 742
e 699 744
e 699 745
e 699 747
e 699 751
e 699 752
e 699 754
e 699 757
e 699 770
e 699 771
e 699 778
e 699 782
e 699 783
e 699 788
e 699 796
e 699 799
e 699 801
e 699 802
e 699 803
e 699 808
e 699 810
e 699 811
e 699 814
e 699 818
e 699 821
e 699 824
e 699 825
e 699 826
e 699 834
e 699 837
e 699 841
e 699 847
e 699 848
e 700 704
e 700 749
e 700 756
e 700 757
e 700 762
e 700 769
e 700 770
e 700 773
e 700 774
e 700 784
e 700 789
e 700 797
e 700 809
e 701 702
e 701 704
e 701 705
e 701 707
e 701 708
e 701 714
e 701 715
e 701 716
e 701 718
e 701 720
e 701 721
e 701 722
e 701 723
e 701 724
e 701 725
e 701 729
e 701 735
e 701 740
e 701 741
e 701 742
e 701 744
e 701 746
e 701 749
e 701 751
e 701 752
e 701 755
e 701 757
e 701 759
e 701 760
e 701 764
e 701 769
e 701 772
e 701 773
e 701 777
e 701 778
e 701 779
e 701 786
e 701 789
e 701 790
e 701 795
e 701 796
e 701 799
e 701 804
e 701 805
e 701 806
e 701 812
e 701 815
e 701 818
e 701 831
e 701 833
e 701 838
e 701 839
e 701 840
e 701 842
e 701 843
e 701 845
e 701 846
e 701 849
e 701 850
e 701 853
e 701 855
e 702 704
e 702 705
e 702 708
e 702 716
e 702 720
e 702 729
e 702 743
e 702 744
e 702 746
e 702 755
e 702 769
e 702 778
e 702 779
e 702 796
e 702 833
e 702 849
e 703 704
e 703 707
e 703 709
e 703 712
e 703 716
e 703 728
e 703 730
e 703 732
e 703 733
e 703 738
e 703 740
e 703 741
e 703 744
e 703 745
e 703 747
e 703 748
e 703 752
e 703 757
e 703 761
e 703 768
e 703 769
e 703 770
e 703 794
e 703 796
e 703 799
e 703 801
e 703 803
e 703 811
e 703 818
e 703 827
e 703 828
e 703 840
e 703 842
e 703 843
e 704 705
e 704 707
e 704 708
e 704 709
e 704 714
e 704 715
e 704 716
e 704 718
e 704 720
e 704 721
e 704 723
e 704 724
e 704 729
e 704 733
e 704 734
e 704 735
e 704 740
e 704 741
e 704 742
e 704 744
e 704 745
e 704 747
e 704 750
e 704 751
e 704 752
e 704 754
e 704 755
e 704 756
e 704 757
e 704 758
e 704 762
e 704 764
e 704 769
e 704 770
e 704 771
e 704 772
e 704 773
e 704 774
e 704 777
e 704 778
e 704 779
e 704 780
e 704 781
e 704 782
e 704 783
e 704 784
e 704 788
e 704 789
e 704 791
e 704 792
e 704 793
e 704 794
e 704 795
e 704 796
e 704 797
e 704 798
e 704 799
e 704 801
e 704 802
e 704 803
e 704 804
e 704 805
e 704 806
e 704 808
e 704 809
e 704 810
e 704 811
e 704 814
e 704 815
e 704 818
e 704 819
e 704 820
e 704 823
e 704 824
e 704 825
e 704 826
e 704 831
e 704 833
e 704 834
e 704 838
e 704 839
e 704 840
e 704 841
e 704 842
e 704 843
e 704 845
e 704 846
e 704 847
e 704 849
e 704 851
e 704 852
e 704 853
e 704 855
e 705 708
e 705 716
e 705 718
e 705 725
e 705 744
e 705 750
e 705 755
e 705 772
e 705 778
e 705 779
e 705 786
e 705 789
e 705 790
e 705 796
e 705 804
e 705 833
e 705 839
e 705 845
e 705 846
e 705 849
e 705 853
e 706 717
e 706 721
e 706 735
e 706 736
e 706 742
e 706 744
e 706 745
e 706 760
e 706 769
e 706 776
e 706 778
e 706 787
e 706 799
e 706 800
e 706 813
e 706 822
e 706 824
e 706 827
e 706 829
e 706 830
e 706 832
e 706 835
e 706 836
e 706 848
e 706 850
e 707 709
e 707 710
e 707 714
e 707 715
e 707 716
e 707 717
e 707 719
e 707 721
e 707 722
e 707 724
e 707 728
e 707 730
e 707 731
e 707 732
e 707 733
e 707 736
e 707 737
e 707 739
e 707 740
e 707 741
e 707 742
e 707 744
e 707 745
e 707 747
e 707 748
e 707 751
e 707 752
e 707 753
e 707 756
e 707 757
e 707 759
e 707 761
e 707 762
e 707 763
e 707 764
e 707 765
e 707 767
e 707 768
e 707 769
e 707 770
e 707 774
e 707 776
e 707 777
e 707 778
e 707 779
e 707 780
e 707 784
e 707 787
e 707 794
e 707 796
e 707 798
e 707 799
e 707 801
e 707 803
e 707 804
e 707 805
e 707 807
e 707 809
e 707 810
e 707 811
e 707 813
e 707 815
e 707 816
e 707 817
e 707 818
e 707 821
e 707 823
e 707 824
e 707 826
e 707 827
e 707 828
e 707 829
e 707 832
e 707 833
e 707 835
e 707 836
e 707 837
e 707 839
e 707 840
e 707 842
e 707 843
e 707 844
e 707 846
e 707 848
e 707 850
e 707 852
e 707 853
e 708 714
e 708 715
e 708 716
e 708 718
e 708 723
e 708 724
e 708 725
e 708 740
e 708 744
e 708 751
e 708 755
e 708 759
e 708 772
e 708 774
e 708 778
e 708 779
e 708 786
e 708 789
e 708 790
e 708 796
e 708 833
e 708 845
e 708 846
e 708 849
e 708 853
e 709 711
e 709 712
e 709 723
e 709 726
e 709 730
e 709 732
e 709 733
e 709 740
e 709 741
e 709 742
e 709 744
e 709 747
e 709 748
e 709 751
e 709 752
e 709 753
e 709 757
e 709 759
e 709 764
e 709 765
e 709 770
e 709 776
e 709 777
e 709 779
e 709 780
e 709 796
e 709 798
e 709 799
e 709 803
e 709 806
e 709 811
e 709 815
e 709 817
e 709 826
e 709 827
e 709 832
e 709 835
e 709 837
e 709 842
e 709 851
e 709 855
e 710 717
e 710 719
e 710 728
e 710 739
e 710 741
e 710 742
e 710 756
e 710 757
e 710 777
e 710 796
e 710 799
e 710 807
e 710 809
e 710 817
e 710 843
e 711 726
e 711 732
e 711 741
e 711 742
e 711 748
e 711 751
e 711 765
e 711 766
e 711 780
e 711 803
e 711 808
e 711 810
e 711 815
e 711 834
e 711 837
e 711 840
e 711 842
e 711 851
e 711 855
e 712 716
e 712 730
e 712 731
e 712 733
e 712 742
e 712 744
e 712 747
e 712 752
e 712 757
e 712 770
e 712 796
e 712 807
e 712 811
e 712 822
e 712 824
e 712 850
e 713 751
e 713 754
e 713 778
e 713 802
e 713 821
e 713 837
e 713 841
e 714 715
e 714 716
e 714 723
e 714 724
e 714 728
e 714 739
e 714 740
e 714 744
e 714 751
e 714 756
e 714 757
e 714 759
e 714 763
e 714 774
e 714 796
e 714 799
e 714 807
e 714 809
e 714 817
e 715 721
e 715 723
e 715 724
e 715 728
e 715 735
e 715 739
e 715 740
e 715 742
e 715 744
e 715 751
e 715 756
e 715 757
e 715 759
e 715 763
e 715 769
e 715 774
e 715 778
e 715 779
e 715 780
e 715 782
e 715 783
e 715 791
e 715 792
e 715 793
e 715 796
e 715 799
e 715 802
e 715 803
e 715 807
e 715 809
e 715 817
e 715 819
e 715 820
e 715 824
e 715 831
e 715 833
e 715 834
e 715 839
e 715 841
e 715 847
e 715 852
e 716 724
e 716 725
e 716 728
e 716 731
e 716 738
e 716 740
e 716 741
e 716 742
e 716 744
e 716 750
e 716 755
e 716 757
e 716 760
e 716 767
e 716 778
e 716 779
e 716 790
e 716 796
e 716 801
e 716 804
e 716 807
e 716 815
e 716 816
e 716 822
e 716 823
e 716 824
e 716 828
e 716 833
e 716 839
e 716 843
e 716 845
e 716 849
e 716 850
e 717 719
e 717 728
e 717 731
e 717 738
e 717 739
e 717 741
e 717 742
e 717 744
e 717 745
e 717 756
e 717 757
e 717 760
e 717 762
e 717 769
e 717 774
e 717 776
e 717 777
e 717 781
e 717 782
e 717 784
e 717 787
e 717 796
e 717 799
e 717 800
e 717 804
e 717 807
e 717 809
e 717 811
e 717 813
e 717 817
e 717 824
e 717 826
e 717 827
e 717 828
e 717 829
e 717 830
e 717 832
e 717 833
e 717 835
e 717 836
e 717 843
e 717 848
e 717 850
e 718 720
e 718 725
e 718 729
e 718 735
e 718 742
e 718 743
e 718 744
e 718 746
e 718 749
e 718 750
e 718 751
e 718 755
e 718 762
e 718 769
e 718 770
e 718 772
e 718 773
e 718 778
e 718 779
e 718 784
e 718 786
e 718 789
e 718 790
e 718 804
e 718 812
e 718 833
e 718 845
e 718 846
e 718 849
e 718 852
e 718 853
e 719 728
e 719 739
e 719 742
e 719 744
e 719 756
e 719 757
e 719 762
e 719 774
e 719 784
e 719 796
e 719 799
e 719 804
e 719 807
e 719 809
e 719 817
e 719 843
e 720 721
e 720 725
e 720 729
e 720 735
e 720 742
e 720 743
e 720 744
e 720 746
e 720 749
e 720 750
e 720 751
e 720 758
e 720 762
e 720 769
e 720 770
e 720 772
e 720 773
e 720 774
e 720 780
e 720 784
e 720 786
e 720 789
e 720 790
e 720 795
e 720 804
e 720 805
e 720 812
e 720 833
e 720 838
e 720 845
e 720 846
e 720 849
e 720 852
e 720 853
e 720 855
e 721 722
e 721 734
e 721 735
e 721 736
e 721 739
e 721 741
e 721 742
e 721 744
e 721 745
e 721 749
e 721 751
e 721 754
e 721 757
e 721 758
e 721 765
e 721 769
e 721 770
e 721 771
e 721 773
e 721 774
e 721 778
e 721 780
e 721 782
e 721 783
e 721 784
e 721 788
e 721 791
e 721 792
e 721 793
e 721 795
e 721 796
e 721 797
e 721 799
e 721 801
e 721 802
e 721 803
e 721 805
e 721 808
e 721 810
e 721 815
e 721 818
e 721 819
e 721 820
e 721 822
e 721 823
e 721 824
e 721 825
e 721 827
e 721 830
e 721 833
e 721 834
e 721 835
e 721 836
e 721 838
e 721 839
e 721 840
e 721 841
e 721 843
e 721 846
e 721 847
e 721 848
e 721 849
e 721 851
e 721 852
e 721 853
e 721 855
e 722 741
e 722 744
e 722 752
e 722 757
e 722 765
e 722 770
e 722 796
e 722 805
e 722 833
e 722 837
e 722 842
e 722 846
e 722 848
e 722 850
e 723 724
e 723 740
e 723 741
e 723 742
e 723 744
e 723 751
e 723 757
e 723 759
e 723 764
e 723 774
e 723 777
e 723 778
e 723 779
e 723 796
e 723 798
e 723 806
e 723 833
e 724 725
e 724 735
e 724 740
e 724 742
e 724 744
e 724 745
e 724 751
e 724 759
e 724 763
e 724 764
e 724 774
e 724 777
e 724 799
e 724 804
e 724 806
e 724 807
e 724 809
e 724 812
e 724 817
e 725 729
e 725 735
e 725 742
e 725 743
e 725 744
e 725 746
e 725 750
e 725 751
e 725 755
e 725 760
e 725 769
e 725 772
e 725 773
e 725 778
e 725 779
e 725 786
e 725 789
e 725 790
e 725 804
e 725 812
e 725 831
e 725 833
e 725 839
e 725 845
e 725 846
e 725 849
e 725 853
e 726 745
e 726 751
e 726 765
e 726 769
e 726 775
e 726 779
e 726 780
e 726 815
e 726 831
e 726 837
e 726 842
e 726 851
e 726 852
e 726 855
e 727 737
e 727 738
e 727 742
e 727 757
e 727 759
e 727 768
e 727 769
e 727 775
e 727 778
e 727 781
e 727 782
e 727 794
e 727 796
e 727 806
e 727 812
e 727 813
e 727 814
e 727 825
e 727 826
e 727 828
e 727 830
e 728 738
e 728 739
e 728 740
e 728 742
e 728 756
e 728 757
e 728 763
e 728 796
e 728 799
e 728 801
e 728 807
e 728 809
e 728 817
e 728 843
e 729 735
e 729 742
e 729 743
e 729 744
e 729 746
e 729 749
e 729 750
e 729 751
e 729 762
e 729 769
e 729 770
e 729 772
e 729 773
e 729 784
e 729 786
e 729 789
e 729 790
e 729 804
e 729 812
e 729 833
e 729 845
e 729 846
e 729 849
e 729 852
e 729 853
e 730 732
e 730 740
e 730 742
e 730 744
e 730 747
e 730 748
e 730 752
e 730 753
e 730 757
e 730 759
e 730 770
e 730 796
e 730 801
e 730 803
e 730 811
e 730 840
e 731 741
e 731 742
e 731 744
e 731 757
e 731 767
e 731 769
e 731 777
e 731 781
e 731 782
e 731 801
e 731 807
e 731 811
e 731 815
e 731 816
e 731 822
e 731 823
e 731 824
e 731 826
e 731 828
e 731 829
e 731 832
e 731 843
e 731 850
e 732 740
e 732 741
e 732 742
e 732 748
e 732 753
e 732 759
e 732 766
e 732 801
e 732 803
e 732 808
e 732 810
e 732 811
e 732 834
e 732 840
e 732 842
e 732 851
e 732 855
e 733 741
e 733 747
e 733 752
e 733 796
e 733 799
e 733 811
e 733 818
e 733 840
e 733 842
e 733 843
e 734 741
e 734 745
e 734 754
e 734 757
e 734 770
e 734 771
e 734 782
e 734 788
e 734 799
e 734 801
e 734 803
e 734 808
e 734 810
e 734 818
e 734 824
e 734 825
e 734 834
e 734 847
e 735 736
e 735 739
e 735 742
e 735 743
e 735 744
e 735 745
e 735 746
e 735 750
e 735 751
e 735 769
e 735 772
e 735 773
e 735 774
e 735 778
e 735 782
e 735 783
e 735 786
e 735 789
e 735 790
e 735 791
e 735 792
e 735 793
e 735 799
e 735 802
e 735 803
e 735 804
e 735 812
e 735 819
e 735 820
e 735 822
e 735 824
e 735 827
e 735 830
e 735 831
e 735 833
e 735 835
e 735 836
e 735 839
e 735 841
e 735 845
e 735 846
e 735 847
e 735 848
e 735 849
e 735 853
e 736 742
e 736 744
e 736 745
e 736 763
e 736 769
e 736 778
e 736 799
e 736 807
e 736 809
e 736 817
e 736 822
e 736 827
e 736 829
e 736 830
e 736 835
e 736 836
e 736 839
e 736 848
e 737 740
e 737 753
e 737 759
e 737 764
e 737 768
e 737 769
e 737 775
e 737 776
e 737 781
e 737 782
e 737 787
e 737 794
e 737 796
e 737 812
e 737 814
e 737 827
e 737 830
e 738 742
e 738 744
e 738 757
e 738 769
e 738 778
e 738 781
e 738 782
e 738 799
e 738 800
e 738 801
e 738 806
e 738 812
e 738 813
e 738 814
e 738 824
e 738 825
e 738 826
e 738 827
e 738 828
e 738 829
e 738 833
e 738 843
e 738 850
e 739 740
e 739 742
e 739 744
e 739 756
e 739 757
e 739 759
e 739 762
e 739 763
e 739 774
e 739 778
e 739 782
e 739 784
e 739 785
e 739 791
e 739 792
e 739 793
e 739 796
e 739 799
e 739 803
e 739 804
e 739 807
e 739 809
e 739 816
e 739 817
e 739 819
e 739 820
e 739 822
e 739 824
e 739 825
e 739 831
e 739 833
e 739 835
e 739 839
e 739 841
e 739 844
e 739 847
e 739 851
e 739 855
e 740 741
e 740 742
e 740 744
e 740 748
e 740 751
e 740 753
e 740 755
e 740 756
e 740 757
e 740 759
e 740 761
e 740 763
e 740 764
e 740 768
e 740 769
e 740 774
e 740 776
e 740 777
e 740 787
e 740 790
e 740 794
e 740 796
e 740 799
e 740 803
e 740 806
e 740 807
e 740 809
e 740 812
e 740 817
e 740 826
e 740 827
e 740 835
e 741 742
e 741 744
e 741 745
e 741 747
e 741 748
e 741 751
e 741 752
e 741 753
e 741 754
e 741 757
e 741 759
e 741 761
e 741 764
e 741 766
e 741 767
e 741 768
e 741 769
e 741 770
e 741 771
e 741 772
e 741 773
e 741 776
e 741 777
e 741 779
e 741 780
e 741 781
e 741 782
e 741 788
e 741 794
e 741 796
e 741 798
e 741 799
e 741 800
e 741 801
e 741 803
e 741 806
e 741 807
e 741 808
e 741 810
e 741 811
e 741 813
e 741 814
e 741 815
e 741 816
e 741 817
e 741 818
e 741 822
e 741 823
e 741 824
e 741 825
e 741 826
e 741 828
e 741 829
e 741 830
e 741 831
e 741 832
e 741 833
e 741 834
e 741 835
e 741 836
e 741 837
e 741 840
e 741 842
e 741 843
e 741 844
e 741 847
e 741 848
e 741 850
e 741 851
e 741 853
e 741 855
e 742 744
e 742 745
e 742 748
e 742 749
e 742 751
e 742 752
e 742 753
e 742 756
e 742 757
e 742 758
e 742 759
e 742 762
e 742 764
e 742 766
e 742 769
e 742 770
e 742 771
e 742 773
e 742 774
e 742 776
e 742 777
e 742 778
e 742 779
e 742 780
e 742 784
e 742 785
e 742 786
e 742 788
e 742 789
e 742 795
e 742 796
e 742 797
e 742 798
e 742 799
e 742 800
e 742 803
e 742 804
e 742 805
e 742 806
e 742 807
e 742 808
e 742 809
e 742 810
e 742 811
e 742 812
e 742 813
e 742 814
e 742 815
e 742 816
e 742 817
e 742 822
e 742 823
e 742 824
e 742 825
e 742 826
e 742 827
e 742 828
e 742 829
e 742 830
e 742 831
e 742 832
e 742 833
e 742 834
e 742 835
e 742 836
e 742 838
e 742 840
e 742 842
e 742 843
e 742 844
e 742 845
e 742 846
e 742 848
e 742 849
e 742 850
e 742 851
e 742 852
e 742 853
e 742 855
e 743 744
e 743 746
e 743 750
e 743 769
e 743 772
e 743 786
e 743 789
e 743 790
e 743 804
e 743 833
e 743 845
e 743 846
e 743 849
e 743 853
e 744 745
e 744 746
e 744 747
e 744 750
e 744 751
e 744 752
e 744 753
e 744 755
e 744 756
e 744 757
e 744 760
e 744 761
e 744 762
e 744 764
e 744 767
e 744 769
e 744 770
e 744 771
e 744 772
e 744 773
e 744 774
e 744 776
e 744 777
e 744 778
e 744 779
e 744 780
e 744 781
e 744 782
e 744 783
e 744 784
e 744 786
e 744 788
e 744 789
e 744 790
e 744 791
e 744 792
e 744 793
e 744 796
e 744 798
e 744 799
e 744 800
e 744 801
e 744 802
e 744 803
e 744 804
e 744 806
e 744 807
e 744 808
e 744 809
e 744 811
e 744 812
e 744 813
e 744 814
e 744 815
e 744 816
e 744 819
e 744 820
e 744 822
e 744 823
e 744 824
e 744 825
e 744 826
e 744 827
e 744 828
e 744 829
e 744 830
e 744 831
e 744 833
e 744 834
e 744 835
e 744 836
e 744 837
e 744 838
e 744 839
e 744 841
e 744 843
e 744 845
e 744 846
e 744 847
e 744 848
e 744 849
e 744 850
e 744 851
e 744 852
e 744 853
e 744 855
e 745 754
e 745 757
e 745 760
e 745 761
e 745 763
e 745 768
e 745 769
e 745 770
e 745 771
e 745 774
e 745 775
e 745 778
e 745 779
e 745 780
e 745 782
e 745 783
e 745 785
e 745 787
e 745 794
e 745 799
e 745 800
e 745 803
e 745 807
e 745 808
e 745 809
e 745 813
e 745 814
e 745 816
e 745 817
e 745 818
e 745 819
e 745 820
e 745 822
e 745 824
e 745 825
e 745 826
e 745 827
e 745 828
e 745 829
e 745 830
e 745 831
e 745 832
e 745 834
e 745 835
e 745 836
e 745 837
e 745 842
e 745 844
e 745 845
e 745 847
e 745 848
e 745 850
e 745 851
e 745 852
e 745 855
e 746 750
e 746 751
e 746 769
e 746 772
e 746 773
e 746 786
e 746 789
e 746 790
e 746 804
e 746 812
e 746 831
e 746 833
e 746 845
e 746 846
e 746 849
e 746 853
e 747 752
e 747 757
e 747 770
e 747 796
e 747 799
e 747 811
e 747 818
e 747 840
e 747 842
e 747 843
e 748 753
e 748 757
e 748 759
e 748 766
e 748 796
e 748 799
e 748 801
e 748 803
e 748 808
e 748 810
e 748 811
e 748 826
e 748 827
e 748 832
e 748 834
e 748 840
e 748 842
e 748 851
e 748 855
e 749 751
e 749 757
e 749 769
e 749 773
e 749 774
e 749 786
e 749 789
e 749 797
e 749 812
e 749 833
e 749 845
e 749 846
e 749 849
e 749 853
e 750 769
e 750 772
e 750 778
e 750 786
e 750 789
e 750 790
e 750 804
e 750 833
e 750 839
e 750 845
e 750 846
e 750 849
e 750 853
e 751 754
e 751 757
e 751 759
e 751 762
e 751 765
e 751 766
e 751 767
e 751 769
e 751 770
e 751 772
e 751 773
e 751 774
e 751 778
e 751 779
e 751 780
e 751 781
e 751 782
e 751 784
e 751 786
e 751 789
e 751 794
e 751 796
e 751 797
e 751 798
e 751 802
e 751 804
e 751 807
e 751 810
e 751 812
e 751 814
e 751 815
e 751 821
e 751 823
e 751 824
e 751 825
e 751 826
e 751 831
e 751 833
e 751 837
e 751 841
e 751 842
e 751 844
e 751 845
e 751 846
e 751 849
e 751 850
e 751 851
e 751 852
e 751 853
e 751 855
e 752 757
e 752 770
e 752 779
e 752 780
e 752 796
e 752 798
e 752 799
e 752 800
e 752 811
e 752 815
e 752 818
e 752 827
e 752 833
e 752 835
e 752 836
e 752 837
e 752 840
e 752 842
e 752 843
e 752 844
e 752 848
e 752 850
e 752 853
e 753 759
e 753 764
e 753 768
e 753 769
e 753 776
e 753 777
e 753 787
e 753 794
e 753 803
e 753 826
e 753 827
e 753 835
e 754 770
e 754 771
e 754 778
e 754 782
e 754 799
e 754 802
e 754 808
e 754 818
e 754 821
e 754 824
e 754 825
e 754 834
e 754 837
e 754 841
e 754 847
e 755 760
e 755 772
e 755 774
e 755 778
e 755 779
e 755 786
e 755 789
e 755 790
e 755 799
e 755 833
e 755 839
e 755 845
e 755 846
e 755 849
e 755 853
e 756 757
e 756 762
e 756 763
e 756 774
e 756 784
e 756 796
e 756 799
e 756 804
e 756 807
e 756 809
e 756 817
e 757 761
e 757 763
e 757 764
e 757 765
e 757 766
e 757 767
e 757 768
e 757 769
e 757 770
e 757 771
e 757 772
e 757 773
e 757 774
e 757 777
e 757 778
e 757 779
e 757 781
e 757 782
e 757 788
e 757 794
e 757 796
e 757 797
e 757 798
e 757 799
e 757 800
e 757 801
e 757 803
e 757 806
e 757 807
e 757 808
e 757 809
e 757 810
e 757 811
e 757 812
e 757 813
e 757 814
e 757 817
e 757 818
e 757 821
e 757 822
e 757 823
e 757 824
e 757 825
e 757 826
e 757 827
e 757 828
e 757 829
e 757 830
e 757 831
e 757 832
e 757 833
e 757 834
e 757 835
e 757 836
e 757 837
e 757 842
e 757 843
e 757 848
e 757 850
e 758 769
e 758 774
e 758 780
e 758 795
e 758 805
e 758 838
e 758 840
e 758 843
e 758 853
e 758 855
e 759 768
e 759 769
e 759 774
e 759 775
e 759 778
e 759 779
e 759 781
e 759 782
e 759 785
e 759 794
e 759 796
e 759 798
e 759 803
e 759 812
e 759 814
e 759 816
e 759 822
e 759 825
e 759 830
e 759 831
e 759 832
e 759 833
e 759 836
e 759 844
e 759 848
e 759 851
e 759 855
e 760 769
e 760 776
e 760 778
e 760 782
e 760 787
e 760 790
e 760 799
e 760 800
e 760 803
e 760 813
e 760 819
e 760 820
e 760 824
e 760 829
e 760 830
e 760 832
e 760 836
e 760 839
e 760 844
e 760 845
e 760 848
e 760 850
e 761 768
e 761 769
e 761 794
e 761 813
e 761 827
e 761 828
e 762 770
e 762 774
e 762 784
e 762 789
e 762 797
e 762 804
e 762 807
e 762 809
e 762 833
e 762 845
e 762 846
e 762 849
e 762 852
e 762 853
e 763 769
e 763 774
e 763 778
e 763 796
e 763 799
e 763 807
e 763 809
e 763 817
e 763 829
e 763 839
e 764 768
e 764 769
e 764 772
e 764 776
e 764 777
e 764 779
e 764 781
e 764 782
e 764 787
e 764 794
e 764 798
e 764 806
e 764 812
e 764 827
e 765 770
e 765 780
e 765 796
e 765 815
e 765 837
e 765 842
e 765 848
e 765 851
e 765 855
e 766 767
e 766 778
e 766 779
e 766 803
e 766 806
e 766 808
e 766 810
e 766 814
e 766 816
e 766 821
e 766 823
e 766 825
e 766 826
e 766 828
e 766 834
e 766 840
e 766 842
e 766 851
e 766 852
e 766 855
e 767 778
e 767 779
e 767 801
e 767 806
e 767 814
e 767 815
e 767 816
e 767 821
e 767 823
e 767 824
e 767 825
e 767 826
e 767 828
e 767 843
e 767 852
e 768 769
e 768 775
e 768 776
e 768 781
e 768 782
e 768 787
e 768 794
e 768 796
e 768 812
e 768 814
e 768 827
e 768 828
e 768 830
e 769 772
e 769 773
e 769 774
e 769 775
e 769 776
e 769 777
e 769 778
e 769 779
e 769 780
e 769 781
e 769 782
e 769 783
e 769 785
e 769 786
e 769 787
e 769 789
e 769 790
e 769 794
e 769 795
e 769 796
e 769 797
e 769 799
e 769 800
e 769 804
e 769 805
e 769 806
e 769 807
e 769 809
e 769 811
e 769 812
e 769 813
e 769 814
e 769 816
e 769 817
e 769 822
e 769 824
e 769 825
e 769 826
e 769 827
e 769 828
e 769 829
e 769 830
e 769 831
e 769 832
e 769 833
e 769 834
e 769 835
e 769 836
e 769 837
e 769 838
e 769 839
e 769 842
e 769 845
e 769 846
e 769 847
e 769 848
e 769 849
e 769 850
e 769 851
e 769 852
e 769 853
e 769 855
e 770 771
e 770 774
e 770 782
e 770 784
e 770 788
e 770 789
e 770 796
e 770 797
e 770 799
e 770 801
e 770 803
e 770 808
e 770 810
e 770 811
e 770 818
e 770 824
e 770 825
e 770 833
e 770 834
e 770 837
e 770 845
e 770 846
e 770 847
e 770 848
e 770 849
e 770 850
e 770 852
e 770 853
e 771 782
e 771 788
e 771 799
e 771 801
e 771 803
e 771 808
e 771 810
e 771 815
e 771 818
e 771 823
e 771 824
e 771 825
e 771 834
e 771 838
e 771 847
e 771 851
e 771 855
e 772 773
e 772 778
e 772 779
e 772 781
e 772 782
e 772 786
e 772 789
e 772 790
e 772 794
e 772 804
e 772 806
e 772 812
e 772 831
e 772 833
e 772 839
e 772 845
e 772 846
e 772 849
e 772 853
e 773 774
e 773 781
e 773 782
e 773 786
e 773 789
e 773 794
e 773 797
e 773 804
e 773 812
e 773 814
e 773 825
e 773 831
e 773 833
e 773 845
e 773 846
e 773 849
e 773 853
e 774 780
e 774 782
e 774 784
e 774 789
e 774 790
e 774 791
e 774 792
e 774 793
e 774 795
e 774 797
e 774 799
e 774 803
e 774 804
e 774 805
e 774 807
e 774 809
e 774 817
e 774 819
e 774 820
e 774 824
e 774 838
e 774 839
e 774 841
e 774 847
e 774 853
e 774 855
e 775 779
e 775 780
e 775 781
e 775 782
e 775 785
e 775 794
e 775 796
e 775 812
e 775 814
e 775 816
e 775 830
e 775 831
e 775 837
e 775 842
e 775 851
e 775 852
e 775 855
e 776 777
e 776 787
e 776 794
e 776 800
e 776 813
e 776 824
e 776 826
e 776 827
e 776 829
e 776 830
e 776 832
e 776 835
e 776 836
e 776 848
e 776 850
e 777 779
e 777 781
e 777 782
e 777 798
e 777 799
e 777 806
e 777 807
e 777 811
e 777 812
e 777 817
e 777 826
e 777 829
e 777 832
e 777 835
e 778 779
e 778 786
e 778 789
e 778 790
e 778 796
e 778 799
e 778 802
e 778 804
e 778 806
e 778 807
e 778 809
e 778 812
e 778 813
e 778 814
e 778 816
e 778 817
e 778 821
e 778 822
e 778 823
e 778 825
e 778 826
e 778 827
e 778 828
e 778 829
e 778 830
e 778 831
e 778 833
e 778 835
e 778 836
e 778 837
e 778 839
e 778 841
e 778 845
e 778 846
e 778 848
e 778 849
e 778 853
e 779 780
e 779 782
e 779 783
e 779 786
e 779 789
e 779 790
e 779 796
e 779 798
e 779 799
e 779 800
e 779 806
e 779 816
e 779 821
e 779 823
e 779 827
e 779 828
e 779 831
e 779 833
e 779 834
e 779 835
e 779 836
e 779 837
e 779 840
e 779 842
e 779 843
e 779 844
e 779 845
e 779 846
e 779 847
e 779 848
e 779 849
e 779 852
e 779 853
e 780 782
e 780 783
e 780 791
e 780 792
e 780 793
e 780 795
e 780 796
e 780 797
e 780 798
e 780 799
e 780 800
e 780 802
e 780 803
e 780 805
e 780 807
e 780 810
e 780 815
e 780 819
e 780 820
e 780 824
e 780 827
e 780 831
e 780 833
e 780 834
e 780 835
e 780 836
e 780 837
e 780 838
e 780 839
e 780 840
e 780 841
e 780 842
e 780 843
e 780 844
e 780 847
e 780 848
e 780 849
e 780 851
e 780 852
e 780 853
e 780 855
e 781 782
e 781 794
e 781 796
e 781 799
e 781 800
e 781 806
e 781 807
e 781 811
e 781 812
e 781 814
e 781 824
e 781 825
e 781 826
e 781 827
e 781 829
e 781 830
e 781 831
e 781 832
e 781 833
e 781 850
e 782 783
e 782 787
e 782 791
e 782 792
e 782 793
e 782 794
e 782 796
e 782 799
e 782 800
e 782 802
e 782 803
e 782 806
e 782 807
e 782 808
e 782 811
e 782 812
e 782 814
e 782 818
e 782 819
e 782 820
e 782 824
e 782 825
e 782 826
e 782 827
e 782 829
e 782 830
e 782 831
e 782 832
e 782 833
e 782 834
e 782 839
e 782 841
e 782 844
e 782 845
e 782 847
e 782 850
e 782 852
e 783 791
e 783 792
e 783 793
e 783 799
e 783 802
e 783 803
e 783 814
e 783 819
e 783 820
e 783 825
e 783 826
e 783 831
e 783 834
e 783 839
e 783 841
e 783 847
e 783 852
e 784 789
e 784 797
e 784 804
e 784 807
e 784 809
e 784 833
e 784 845
e 784 846
e 784 849
e 784 852
e 784 853
e 785 799
e 785 816
e 785 822
e 785 831
e 785 835
e 785 844
e 785 851
e 785 855
e 786 789
e 786 790
e 786 804
e 786 812
e 786 833
e 786 839
e 786 845
e 786 846
e 786 849
e 786 853
e 787 794
e 787 799
e 787 800
e 787 803
e 787 813
e 787 819
e 787 820
e 787 824
e 787 827
e 787 829
e 787 830
e 787 832
e 787 836
e 787 844
e 787 845
e 787 848
e 787 850
e 788 799
e 788 801
e 788 803
e 788 808
e 788 810
e 788 815
e 788 818
e 788 823
e 788 824
e 788 834
e 788 838
e 788 851
e 788 855
e 789 790
e 789 797
e 789 804
e 789 812
e 789 833
e 789 845
e 789 846
e 789 849
e 789 853
e 790 799
e 790 804
e 790 833
e 790 839
e 790 845
e 790 846
e 790 849
e 790 853
e 791 792
e 791 793
e 791 802
e 791 803
e 791 819
e 791 820
e 791 824
e 791 839
e 791 841
e 791 847
e 792 793
e 792 802
e 792 803
e 792 819
e 792 820
e 792 824
e 792 839
e 792 841
e 792 847
e 793 802
e 793 803
e 793 819
e 793 820
e 793 824
e 793 839
e 793 841
e 793 847
e 794 796
e 794 806
e 794 812
e 794 814
e 794 825
e 794 827
e 794 828
e 794 830
e 794 831
e 795 805
e 795 838
e 795 840
e 795 843
e 795 853
e 795 855
e 796 798
e 796 799
e 796 800
e 796 805
e 796 807
e 796 809
e 796 811
e 796 812
e 796 814
e 796 817
e 796 818
e 796 822
e 796 826
e 796 827
e 796 830
e 796 832
e 796 833
e 796 836
e 796 840
e 796 842
e 796 843
e 796 844
e 796 846
e 796 848
e 797 807
e 797 810
e 797 824
e 797 833
e 797 849
e 797 852
e 798 800
e 798 806
e 798 807
e 798 810
e 798 821
e 798 822
e 798 824
e 798 832
e 798 836
e 798 837
e 798 843
e 798 844
e 798 848
e 798 850
e 798 852
e 799 800
e 799 801
e 799 803
e 799 807
e 799 808
e 799 809
e 799 810
e 799 811
e 799 813
e 799 814
e 799 815
e 799 817
e 799 818
e 799 819
e 799 820
e 799 822
e 799 823
e 799 824
e 799 825
e 799 826
e 799 827
e 799 828
e 799 829
e 799 830
e 799 831
e 799 832
e 799 833
e 799 834
e 799 835
e 799 836
e 799 838
e 799 840
e 799 842
e 799 843
e 799 844
e 799 845
e 799 847
e 799 848
e 799 850
e 799 851
e 799 852
e 799 853
e 799 855
e 800 813
e 800 824
e 800 827
e 800 828
e 800 829
e 800 830
e 800 832
e 800 833
e 800 835
e 800 836
e 800 843
e 800 844
e 800 848
e 800 850
e 801 803
e 801 808
e 801 810
e 801 811
e 801 815
e 801 816
e 801 818
e 801 823
e 801 824
e 801 828
e 801 834
e 801 840
e 801 843
e 802 803
e 802 819
e 802 820
e 802 821
e 802 837
e 802 839
e 802 841
e 802 847
e 803 808
e 803 810
e 803 811
e 803 818
e 803 819
e 803 820
e 803 824
e 803 832
e 803 834
e 803 839
e 803 840
e 803 841
e 803 842
e 803 844
e 803 845
e 803 847
e 803 850
e 803 851
e 803 855
e 804 807
e 804 809
e 804 812
e 804 831
e 804 833
e 804 839
e 804 845
e 804 846
e 804 849
e 804 853
e 805 838
e 805 840
e 805 843
e 805 846
e 805 853
e 805 855
e 806 812
e 806 813
e 806 814
e 806 816
e 806 821
e 806 823
e 806 825
e 806 826
e 806 828
e 806 852
e 807 809
e 807 810
e 807 811
e 807 817
e 807 821
e 807 822
e 807 824
e 807 826
e 807 829
e 807 832
e 807 833
e 807 837
e 807 839
e 807 844
e 807 849
e 807 850
e 807 852
e 808 810
e 808 818
e 808 824
e 808 825
e 808 834
e 808 840
e 808 842
e 808 847
e 808 848
e 808 851
e 808 855
e 809 817
e 809 829
e 809 839
e 810 818
e 810 821
e 810 824
e 810 833
e 810 834
e 810 837
e 810 840
e 810 842
e 810 844
e 810 849
e 810 850
e 810 851
e 810 852
e 810 855
e 811 818
e 811 826
e 811 827
e 811 829
e 811 832
e 811 840
e 811 842
e 811 843
e 812 813
e 812 814
e 812 825
e 812 826
e 812 828
e 812 830
e 812 831
e 812 833
e 812 845
e 812 846
e 812 849
e 812 853
e 813 814
e 813 824
e 813 825
e 813 826
e 813 828
e 813 829
e 813 830
e 813 832
e 813 835
e 813 836
e 813 848
e 813 850
e 814 821
e 814 823
e 814 825
e 814 826
e 814 828
e 814 830
e 814 831
e 814 834
e 814 847
e 815 816
e 815 818
e 815 823
e 815 824
e 815 828
e 815 833
e 815 837
e 815 838
e 815 842
e 815 843
e 815 851
e 815 853
e 815 855
e 816 821
e 816 823
e 816 824
e 816 825
e 816 828
e 816 831
e 816 833
e 816 843
e 816 851
e 816 852
e 816 855
e 817 826
e 817 829
e 817 839
e 817 843
e 818 824
e 818 825
e 818 833
e 818 834
e 818 840
e 818 842
e 818 843
e 818 847
e 818 853
e 819 820
e 819 824
e 819 832
e 819 839
e 819 841
e 819 844
e 819 845
e 819 847
e 819 850
e 820 824
e 820 832
e 820 839
e 820 841
e 820 844
e 820 845
e 820 847
e 820 850
e 821 823
e 821 824
e 821 825
e 821 826
e 821 828
e 821 837
e 821 841
e 821 844
e 821 850
e 821 852
e 822 824
e 822 827
e 822 830
e 822 832
e 822 835
e 822 836
e 822 844
e 822 848
e 822 850
e 822 851
e 822 855
e 823 824
e 823 825
e 823 826
e 823 828
e 823 838
e 823 843
e 823 851
e 823 852
e 823 855
e 824 825
e 824 827
e 824 828
e 824 829
e 824 830
e 824 832
e 824 833
e 824 834
e 824 835
e 824 836
e 824 837
e 824 839
e 824 841
e 824 843
e 824 844
e 824 847
e 824 848
e 824 849
e 824 850
e 824 852
e 825 826
e 825 828
e 825 831
e 825 833
e 825 834
e 825 847
e 826 827
e 826 828
e 826 829
e 826 832
e 826 834
e 826 835
e 826 847
e 827 829
e 827 830
e 827 832
e 827 833
e 827 835
e 827 836
e 827 840
e 827 848
e 827 850
e 828 829
e 828 830
e 828 832
e 828 835
e 828 836
e 828 843
e 828 848
e 828 850
e 828 852
e 829 830
e 829 832
e 829 833
e 829 835
e 829 836
e 829 839
e 829 848
e 829 850
e 830 832
e 830 835
e 830 836
e 830 848
e 830 850
e 831 833
e 831 834
e 831 837
e 831 842
e 831 847
e 831 851
e 831 852
e 831 855
e 832 835
e 832 836
e 832 844
e 832 845
e 832 848
e 832 850
e 833 835
e 833 836
e 833 837
e 833 839
e 833 840
e 833 842
e 833 845
e 833 846
e 833 849
e 833 850
e 833 852
e 833 853
e 834 840
e 834 842
e 834 847
e 834 851
e 834 852
e 834 855
e 835 836
e 835 840
e 835 844
e 835 848
e 835 850
e 835 851
e 835 855
e 836 840
e 836 844
e 836 848
e 836 850
e 837 841
e 837 842
e 837 844
e 837 850
e 837 851
e 837 852
e 837 855
e 838 840
e 838 843
e 838 851
e 838 853
e 838 855
e 839 841
e 839 845
e 839 847
e 840 842
e 840 843
e 840 851
e 840 853
e 840 855
e 841 847
e 842 843
e 842 850
e 842 851
e 842 852
e 842 853
e 842 855
e 843 844
e 843 848
e 843 853
e 843 855
e 844 845
e 844 848
e 844 850
e 844 851
e 844 852
e 844 855
e 845 846
e 845 849
e 845 850
e 845 852
e 845 853
e 846 849
e 846 852
e 846 853
e 847 852
e 848 850
e 849 852
e 849 853
e 850 852
e 851 855
e 852 853
e 853 855
