c inputfile
p edge 778 52077
e 1 2
e 1 3
e 1 4
e 1 5
e 1 37
e 1 80
e 1 92
e 1 93
e 1 94
e 1 96
e 1 97
e 1 99
e 1 100
e 1 108
e 1 114
e 1 183
e 1 185
e 1 196
e 1 207
e 1 222
e 1 230
e 1 257
e 1 273
e 1 287
e 1 295
e 1 320
e 1 356
e 1 375
e 1 402
e 1 425
e 2 3
e 2 4
e 2 5
e 2 37
e 2 80
e 2 92
e 2 93
e 2 94
e 2 96
e 2 97
e 2 99
e 2 100
e 2 108
e 2 114
e 2 183
e 2 185
e 2 196
e 2 207
e 2 222
e 2 230
e 2 257
e 2 273
e 2 287
e 2 295
e 2 320
e 2 356
e 2 375
e 2 402
e 2 425
e 3 4
e 3 5
e 3 37
e 3 80
e 3 92
e 3 93
e 3 94
e 3 96
e 3 97
e 3 99
e 3 100
e 3 108
e 3 114
e 3 183
e 3 185
e 3 196
e 3 207
e 3 222
e 3 230
e 3 257
e 3 273
e 3 287
e 3 295
e 3 320
e 3 356
e 3 375
e 3 402
e 3 425
e 4 5
e 4 6
e 4 7
e 4 8
e 4 9
e 4 10
e 4 11
e 4 12
e 4 13
e 4 14
e 4 15
e 4 16
e 4 17
e 4 18
e 4 19
e 4 20
e 4 21
e 4 22
e 4 24
e 4 25
e 4 26
e 4 27
e 4 28
e 4 29
e 4 31
e 4 32
e 4 33
e 4 34
e 4 35
e 4 37
e 4 38
e 4 39
e 4 40
e 4 43
e 4 44
e 4 46
e 4 57
e 4 59
e 4 60
e 4 61
e 4 62
e 4 63
e 4 64
e 4 65
e 4 71
e 4 77
e 4 78
e 4 79
e 4 80
e 4 81
e 4 82
e 4 85
e 4 86
e 4 89
e 4 92
e 4 93
e 4 94
e 4 95
e 4 96
e 4 97
e 4 98
e 4 99
e 4 100
e 4 101
e 4 103
e 4 105
e 4 106
e 4 107
e 4 108
e 4 114
e 4 117
e 4 125
e 4 126
e 4 128
e 4 130
e 4 131
e 4 132
e 4 133
e 4 134
e 4 138
e 4 139
e 4 141
e 4 142
e 4 148
e 4 151
e 4 152
e 4 154
e 4 155
e 4 156
e 4 158
e 4 159
e 4 160
e 4 161
e 4 162
e 4 163
e 4 164
e 4 165
e 4 167
e 4 168
e 4 171
e 4 173
e 4 174
e 4 177
e 4 178
e 4 179
e 4 180
e 4 183
e 4 185
e 4 186
e 4 187
e 4 189
e 4 194
e 4 195
e 4 196
e 4 197
e 4 198
e 4 200
e 4 201
e 4 203
e 4 207
e 4 208
e 4 209
e 4 211
e 4 213
e 4 215
e 4 216
e 4 217
e 4 218
e 4 219
e 4 220
e 4 222
e 4 223
e 4 227
e 4 228
e 4 230
e 4 231
e 4 237
e 4 240
e 4 242
e 4 243
e 4 244
e 4 245
e 4 246
e 4 249
e 4 254
e 4 255
e 4 256
e 4 257
e 4 258
e 4 260
e 4 262
e 4 267
e 4 272
e 4 273
e 4 275
e 4 276
e 4 277
e 4 280
e 4 283
e 4 285
e 4 287
e 4 289
e 4 291
e 4 292
e 4 293
e 4 294
e 4 295
e 4 299
e 4 300
e 4 301
e 4 303
e 4 304
e 4 305
e 4 307
e 4 309
e 4 310
e 4 313
e 4 316
e 4 318
e 4 319
e 4 320
e 4 321
e 4 322
e 4 323
e 4 325
e 4 326
e 4 327
e 4 329
e 4 330
e 4 333
e 4 335
e 4 337
e 4 338
e 4 339
e 4 341
e 4 342
e 4 344
e 4 346
e 4 347
e 4 349
e 4 350
e 4 352
e 4 353
e 4 354
e 4 355
e 4 356
e 4 357
e 4 359
e 4 360
e 4 361
e 4 362
e 4 363
e 4 364
e 4 367
e 4 368
e 4 369
e 4 370
e 4 372
e 4 373
e 4 375
e 4 376
e 4 379
e 4 380
e 4 381
e 4 382
e 4 384
e 4 385
e 4 386
e 4 388
e 4 393
e 4 402
e 4 403
e 4 404
e 4 407
e 4 412
e 4 413
e 4 415
e 4 416
e 4 417
e 4 419
e 4 422
e 4 423
e 4 424
e 4 425
e 4 435
e 4 436
e 4 437
e 4 439
e 4 440
e 4 441
e 4 444
e 4 446
e 4 450
e 4 455
e 5 10
e 5 15
e 5 18
e 5 21
e 5 22
e 5 25
e 5 27
e 5 28
e 5 29
e 5 31
e 5 33
e 5 34
e 5 37
e 5 38
e 5 39
e 5 40
e 5 43
e 5 44
e 5 46
e 5 55
e 5 59
e 5 62
e 5 63
e 5 69
e 5 70
e 5 71
e 5 77
e 5 79
e 5 80
e 5 81
e 5 89
e 5 92
e 5 93
e 5 94
e 5 95
e 5 96
e 5 97
e 5 99
e 5 100
e 5 101
e 5 103
e 5 107
e 5 108
e 5 114
e 5 116
e 5 117
e 5 118
e 5 125
e 5 130
e 5 131
e 5 132
e 5 138
e 5 139
e 5 141
e 5 146
e 5 153
e 5 154
e 5 156
e 5 157
e 5 159
e 5 160
e 5 161
e 5 163
e 5 165
e 5 174
e 5 175
e 5 179
e 5 181
e 5 183
e 5 185
e 5 187
e 5 189
e 5 195
e 5 196
e 5 198
e 5 200
e 5 201
e 5 205
e 5 207
e 5 208
e 5 209
e 5 213
e 5 216
e 5 217
e 5 219
e 5 220
e 5 222
e 5 223
e 5 228
e 5 230
e 5 231
e 5 240
e 5 241
e 5 243
e 5 244
e 5 245
e 5 249
e 5 251
e 5 253
e 5 254
e 5 255
e 5 256
e 5 257
e 5 260
e 5 264
e 5 265
e 5 267
e 5 269
e 5 270
e 5 272
e 5 273
e 5 279
e 5 280
e 5 281
e 5 284
e 5 285
e 5 286
e 5 287
e 5 289
e 5 291
e 5 293
e 5 295
e 5 298
e 5 299
e 5 300
e 5 303
e 5 304
e 5 305
e 5 310
e 5 313
e 5 314
e 5 316
e 5 317
e 5 318
e 5 319
e 5 320
e 5 321
e 5 323
e 5 325
e 5 326
e 5 329
e 5 333
e 5 335
e 5 337
e 5 338
e 5 339
e 5 340
e 5 345
e 5 347
e 5 349
e 5 352
e 5 356
e 5 357
e 5 359
e 5 360
e 5 362
e 5 368
e 5 375
e 5 376
e 5 377
e 5 378
e 5 383
e 5 384
e 5 386
e 5 399
e 5 401
e 5 402
e 5 404
e 5 405
e 5 406
e 5 412
e 5 414
e 5 417
e 5 418
e 5 419
e 5 422
e 5 423
e 5 425
e 5 427
e 5 435
e 5 436
e 5 437
e 5 439
e 5 441
e 5 442
e 5 444
e 5 445
e 5 450
e 5 451
e 5 455
e 6 7
e 6 18
e 6 79
e 6 81
e 6 92
e 6 98
e 6 101
e 6 107
e 6 117
e 6 152
e 6 160
e 6 165
e 6 179
e 6 186
e 6 200
e 6 209
e 6 220
e 6 231
e 6 237
e 6 245
e 6 258
e 6 262
e 6 272
e 6 280
e 6 283
e 6 310
e 6 321
e 6 330
e 6 338
e 6 347
e 6 402
e 6 416
e 6 441
e 7 8
e 7 9
e 7 10
e 7 11
e 7 12
e 7 13
e 7 14
e 7 15
e 7 16
e 7 18
e 7 20
e 7 21
e 7 22
e 7 24
e 7 25
e 7 26
e 7 27
e 7 28
e 7 29
e 7 31
e 7 32
e 7 33
e 7 35
e 7 37
e 7 39
e 7 40
e 7 43
e 7 46
e 7 50
e 7 53
e 7 55
e 7 58
e 7 59
e 7 60
e 7 61
e 7 62
e 7 63
e 7 64
e 7 66
e 7 68
e 7 69
e 7 71
e 7 72
e 7 73
e 7 74
e 7 75
e 7 76
e 7 77
e 7 78
e 7 79
e 7 80
e 7 81
e 7 83
e 7 86
e 7 87
e 7 89
e 7 92
e 7 94
e 7 98
e 7 101
e 7 102
e 7 103
e 7 107
e 7 108
e 7 109
e 7 114
e 7 115
e 7 117
e 7 125
e 7 126
e 7 128
e 7 130
e 7 131
e 7 132
e 7 133
e 7 134
e 7 138
e 7 139
e 7 142
e 7 151
e 7 152
e 7 155
e 7 156
e 7 160
e 7 161
e 7 164
e 7 165
e 7 172
e 7 174
e 7 175
e 7 176
e 7 179
e 7 182
e 7 186
e 7 187
e 7 188
e 7 189
e 7 192
e 7 194
e 7 195
e 7 196
e 7 199
e 7 200
e 7 201
e 7 203
e 7 204
e 7 205
e 7 207
e 7 208
e 7 209
e 7 211
e 7 213
e 7 214
e 7 216
e 7 218
e 7 220
e 7 222
e 7 226
e 7 227
e 7 231
e 7 233
e 7 234
e 7 235
e 7 236
e 7 237
e 7 240
e 7 241
e 7 242
e 7 244
e 7 245
e 7 251
e 7 254
e 7 255
e 7 256
e 7 258
e 7 260
e 7 262
e 7 265
e 7 266
e 7 271
e 7 272
e 7 277
e 7 279
e 7 280
e 7 283
e 7 285
e 7 286
e 7 289
e 7 291
e 7 292
e 7 295
e 7 296
e 7 297
e 7 298
e 7 299
e 7 300
e 7 301
e 7 304
e 7 307
e 7 308
e 7 309
e 7 310
e 7 312
e 7 313
e 7 320
e 7 321
e 7 323
e 7 325
e 7 330
e 7 331
e 7 333
e 7 338
e 7 340
e 7 345
e 7 347
e 7 349
e 7 350
e 7 352
e 7 354
e 7 356
e 7 357
e 7 362
e 7 364
e 7 366
e 7 368
e 7 370
e 7 371
e 7 375
e 7 379
e 7 380
e 7 381
e 7 382
e 7 391
e 7 392
e 7 399
e 7 402
e 7 404
e 7 405
e 7 409
e 7 413
e 7 416
e 7 417
e 7 423
e 7 424
e 7 427
e 7 428
e 7 432
e 7 434
e 7 435
e 7 437
e 7 438
e 7 441
e 7 442
e 7 446
e 7 448
e 7 451
e 7 455
e 7 460
e 7 461
e 7 463
e 7 464
e 7 465
e 7 466
e 7 467
e 7 468
e 7 471
e 7 472
e 7 473
e 7 475
e 7 476
e 7 477
e 7 478
e 7 479
e 7 480
e 7 482
e 7 484
e 7 486
e 7 491
e 7 496
e 7 498
e 7 501
e 7 502
e 7 503
e 7 504
e 7 505
e 7 506
e 7 507
e 7 509
e 7 510
e 7 511
e 7 512
e 7 513
e 7 514
e 7 515
e 7 516
e 7 519
e 7 525
e 7 527
e 7 530
e 7 535
e 7 537
e 7 545
e 7 546
e 7 548
e 7 551
e 7 552
e 7 562
e 7 565
e 7 568
e 7 571
e 7 578
e 7 581
e 7 582
e 7 583
e 7 584
e 7 586
e 7 587
e 7 590
e 7 592
e 7 593
e 7 599
e 7 605
e 7 612
e 7 615
e 7 616
e 7 617
e 7 618
e 7 619
e 7 621
e 7 622
e 7 623
e 7 625
e 7 626
e 7 633
e 7 636
e 7 640
e 7 641
e 7 645
e 7 648
e 7 651
e 7 654
e 7 658
e 7 659
e 7 662
e 7 663
e 7 665
e 7 666
e 7 671
e 7 675
e 7 681
e 7 682
e 7 684
e 7 687
e 7 688
e 7 691
e 7 696
e 7 707
e 7 710
e 7 713
e 7 717
e 7 718
e 7 731
e 7 732
e 7 734
e 7 741
e 7 745
e 7 746
e 7 752
e 7 754
e 7 756
e 7 757
e 7 760
e 7 761
e 7 765
e 7 773
e 7 774
e 7 777
e 8 9
e 8 10
e 8 11
e 8 12
e 8 13
e 8 14
e 8 16
e 8 28
e 8 40
e 8 60
e 8 61
e 8 62
e 8 64
e 8 79
e 8 80
e 8 86
e 8 130
e 8 133
e 8 138
e 8 139
e 8 155
e 8 156
e 8 195
e 8 208
e 8 222
e 8 245
e 8 299
e 8 300
e 8 301
e 8 313
e 8 320
e 8 321
e 8 325
e 8 354
e 8 379
e 8 381
e 8 404
e 9 10
e 9 11
e 9 12
e 9 13
e 9 14
e 9 15
e 9 16
e 9 18
e 9 19
e 9 21
e 9 24
e 9 25
e 9 27
e 9 28
e 9 29
e 9 40
e 9 43
e 9 46
e 9 53
e 9 55
e 9 59
e 9 60
e 9 61
e 9 62
e 9 63
e 9 64
e 9 71
e 9 77
e 9 78
e 9 79
e 9 80
e 9 81
e 9 86
e 9 89
e 9 90
e 9 92
e 9 94
e 9 95
e 9 97
e 9 101
e 9 103
e 9 107
e 9 108
e 9 114
e 9 115
e 9 117
e 9 125
e 9 126
e 9 128
e 9 130
e 9 133
e 9 138
e 9 139
e 9 142
e 9 152
e 9 153
e 9 155
e 9 156
e 9 158
e 9 159
e 9 160
e 9 161
e 9 162
e 9 163
e 9 164
e 9 165
e 9 166
e 9 167
e 9 168
e 9 169
e 9 171
e 9 172
e 9 173
e 9 174
e 9 175
e 9 178
e 9 179
e 9 195
e 9 196
e 9 198
e 9 199
e 9 200
e 9 203
e 9 204
e 9 208
e 9 209
e 9 216
e 9 217
e 9 218
e 9 220
e 9 222
e 9 225
e 9 236
e 9 240
e 9 241
e 9 243
e 9 245
e 9 246
e 9 249
e 9 251
e 9 254
e 9 255
e 9 256
e 9 257
e 9 258
e 9 260
e 9 263
e 9 265
e 9 267
e 9 271
e 9 272
e 9 273
e 9 276
e 9 277
e 9 280
e 9 281
e 9 283
e 9 285
e 9 286
e 9 289
e 9 293
e 9 298
e 9 299
e 9 300
e 9 301
e 9 303
e 9 305
e 9 307
e 9 308
e 9 309
e 9 310
e 9 313
e 9 314
e 9 315
e 9 316
e 9 319
e 9 320
e 9 321
e 9 323
e 9 325
e 9 327
e 9 333
e 9 337
e 9 338
e 9 340
e 9 341
e 9 342
e 9 344
e 9 345
e 9 347
e 9 349
e 9 350
e 9 351
e 9 352
e 9 353
e 9 354
e 9 355
e 9 356
e 9 357
e 9 361
e 9 362
e 9 365
e 9 369
e 9 370
e 9 372
e 9 373
e 9 375
e 9 376
e 9 377
e 9 379
e 9 380
e 9 381
e 9 383
e 9 384
e 9 388
e 9 393
e 9 399
e 9 401
e 9 402
e 9 404
e 9 405
e 9 412
e 9 413
e 9 415
e 9 416
e 9 418
e 9 425
e 9 432
e 9 434
e 9 437
e 9 438
e 9 440
e 9 441
e 9 442
e 9 444
e 9 445
e 9 446
e 9 448
e 9 453
e 9 455
e 9 456
e 9 460
e 9 461
e 9 464
e 9 465
e 9 466
e 9 467
e 9 468
e 9 470
e 9 476
e 9 477
e 9 479
e 9 486
e 9 491
e 9 496
e 9 498
e 9 503
e 9 504
e 9 505
e 9 506
e 9 513
e 9 514
e 9 515
e 9 516
e 9 519
e 9 530
e 9 535
e 9 537
e 9 545
e 9 551
e 9 552
e 9 563
e 9 565
e 9 568
e 9 570
e 9 571
e 9 572
e 9 574
e 9 577
e 9 578
e 9 580
e 9 581
e 9 593
e 9 607
e 9 622
e 9 626
e 9 633
e 9 637
e 9 640
e 9 650
e 9 651
e 9 659
e 9 665
e 9 666
e 9 671
e 9 675
e 9 676
e 9 677
e 9 681
e 9 682
e 9 684
e 9 696
e 9 698
e 9 701
e 9 712
e 9 713
e 9 714
e 9 717
e 9 718
e 9 723
e 9 734
e 9 735
e 9 741
e 9 743
e 9 745
e 9 749
e 9 754
e 9 756
e 9 757
e 9 758
e 9 760
e 9 761
e 9 763
e 9 764
e 9 767
e 9 773
e 9 774
e 9 777
e 10 11
e 10 12
e 10 13
e 10 14
e 10 16
e 10 18
e 10 27
e 10 28
e 10 29
e 10 34
e 10 39
e 10 40
e 10 55
e 10 59
e 10 60
e 10 61
e 10 62
e 10 63
e 10 64
e 10 69
e 10 71
e 10 77
e 10 79
e 10 80
e 10 86
e 10 89
e 10 94
e 10 101
e 10 107
e 10 108
e 10 114
e 10 117
e 10 130
e 10 132
e 10 133
e 10 138
e 10 139
e 10 142
e 10 153
e 10 155
e 10 156
e 10 161
e 10 163
e 10 170
e 10 174
e 10 179
e 10 181
e 10 187
e 10 189
e 10 195
e 10 196
e 10 198
e 10 200
e 10 201
e 10 203
e 10 208
e 10 209
e 10 216
e 10 217
e 10 219
e 10 220
e 10 222
e 10 240
e 10 241
e 10 243
e 10 245
e 10 246
e 10 249
e 10 251
e 10 254
e 10 256
e 10 258
e 10 265
e 10 272
e 10 273
e 10 277
e 10 280
e 10 283
e 10 285
e 10 286
e 10 289
e 10 298
e 10 299
e 10 300
e 10 301
e 10 310
e 10 313
e 10 318
e 10 319
e 10 320
e 10 321
e 10 322
e 10 325
e 10 326
e 10 329
e 10 333
e 10 337
e 10 338
e 10 341
e 10 345
e 10 347
e 10 349
e 10 350
e 10 351
e 10 354
e 10 355
e 10 368
e 10 369
e 10 373
e 10 375
e 10 377
e 10 379
e 10 381
e 10 382
e 10 383
e 10 386
e 10 388
e 10 399
e 10 401
e 10 402
e 10 404
e 10 405
e 10 407
e 10 412
e 10 423
e 10 427
e 10 429
e 10 430
e 10 437
e 10 439
e 10 441
e 10 444
e 10 445
e 10 451
e 10 455
e 10 774
e 11 12
e 11 13
e 11 14
e 11 16
e 11 18
e 11 22
e 11 27
e 11 28
e 11 29
e 11 32
e 11 39
e 11 40
e 11 43
e 11 46
e 11 53
e 11 59
e 11 60
e 11 61
e 11 62
e 11 64
e 11 68
e 11 69
e 11 75
e 11 78
e 11 79
e 11 80
e 11 86
e 11 89
e 11 92
e 11 94
e 11 101
e 11 107
e 11 108
e 11 114
e 11 130
e 11 131
e 11 133
e 11 138
e 11 139
e 11 142
e 11 155
e 11 156
e 11 160
e 11 161
e 11 174
e 11 179
e 11 189
e 11 195
e 11 196
e 11 199
e 11 203
e 11 204
e 11 208
e 11 209
e 11 216
e 11 218
e 11 220
e 11 222
e 11 236
e 11 240
e 11 244
e 11 245
e 11 249
e 11 251
e 11 254
e 11 257
e 11 258
e 11 266
e 11 267
e 11 272
e 11 273
e 11 280
e 11 283
e 11 286
e 11 297
e 11 298
e 11 299
e 11 300
e 11 301
e 11 307
e 11 308
e 11 309
e 11 310
e 11 313
e 11 319
e 11 320
e 11 321
e 11 322
e 11 325
e 11 329
e 11 337
e 11 338
e 11 341
e 11 342
e 11 345
e 11 349
e 11 350
e 11 352
e 11 354
e 11 356
e 11 369
e 11 371
e 11 373
e 11 375
e 11 379
e 11 381
e 11 382
e 11 383
e 11 399
e 11 400
e 11 402
e 11 404
e 11 405
e 11 410
e 11 422
e 11 427
e 11 428
e 11 431
e 11 432
e 11 435
e 11 436
e 11 438
e 11 444
e 11 446
e 11 448
e 11 449
e 11 453
e 11 455
e 11 456
e 11 457
e 11 460
e 11 461
e 11 462
e 11 467
e 11 470
e 11 471
e 11 473
e 11 475
e 11 476
e 11 477
e 11 478
e 11 479
e 11 480
e 11 481
e 11 486
e 11 491
e 11 496
e 11 498
e 11 502
e 11 505
e 11 513
e 11 514
e 11 516
e 11 527
e 11 529
e 11 530
e 11 531
e 11 532
e 11 533
e 11 534
e 11 537
e 11 545
e 11 546
e 11 550
e 11 551
e 11 552
e 11 562
e 11 563
e 11 568
e 11 570
e 11 571
e 11 577
e 11 578
e 11 581
e 11 583
e 11 586
e 11 587
e 11 590
e 11 592
e 11 593
e 11 595
e 11 597
e 11 598
e 11 599
e 11 600
e 11 607
e 11 609
e 11 611
e 11 612
e 11 621
e 11 622
e 11 623
e 11 625
e 11 626
e 11 632
e 11 633
e 11 640
e 11 641
e 11 643
e 11 644
e 11 648
e 11 650
e 11 651
e 11 653
e 11 654
e 11 655
e 11 656
e 11 657
e 11 658
e 11 659
e 11 661
e 11 662
e 11 663
e 11 665
e 11 667
e 11 668
e 11 671
e 11 675
e 11 677
e 11 679
e 11 680
e 11 681
e 11 682
e 11 684
e 11 690
e 11 691
e 11 693
e 11 695
e 11 696
e 11 698
e 11 699
e 11 700
e 11 701
e 11 703
e 11 707
e 11 711
e 11 712
e 11 714
e 11 716
e 11 717
e 11 718
e 11 719
e 11 720
e 11 721
e 11 723
e 11 727
e 11 728
e 11 729
e 11 731
e 11 733
e 11 734
e 11 735
e 11 737
e 11 738
e 11 741
e 11 743
e 11 744
e 11 747
e 11 748
e 11 749
e 11 751
e 11 752
e 11 754
e 11 757
e 11 758
e 11 759
e 11 760
e 11 761
e 11 763
e 11 764
e 11 765
e 11 767
e 11 768
e 11 769
e 11 770
e 11 773
e 11 775
e 11 777
e 11 778
e 12 13
e 12 14
e 12 16
e 12 28
e 12 40
e 12 60
e 12 61
e 12 62
e 12 64
e 12 79
e 12 80
e 12 86
e 12 130
e 12 133
e 12 138
e 12 139
e 12 155
e 12 156
e 12 195
e 12 208
e 12 222
e 12 245
e 12 299
e 12 300
e 12 301
e 12 313
e 12 320
e 12 321
e 12 325
e 12 354
e 12 379
e 12 381
e 12 404
e 13 14
e 13 16
e 13 28
e 13 40
e 13 60
e 13 61
e 13 62
e 13 64
e 13 79
e 13 80
e 13 86
e 13 130
e 13 133
e 13 138
e 13 139
e 13 155
e 13 156
e 13 195
e 13 208
e 13 222
e 13 245
e 13 299
e 13 300
e 13 301
e 13 313
e 13 320
e 13 321
e 13 325
e 13 354
e 13 379
e 13 381
e 13 404
e 14 16
e 14 28
e 14 40
e 14 60
e 14 61
e 14 62
e 14 64
e 14 79
e 14 80
e 14 86
e 14 130
e 14 133
e 14 138
e 14 139
e 14 155
e 14 156
e 14 195
e 14 208
e 14 222
e 14 245
e 14 299
e 14 300
e 14 301
e 14 313
e 14 320
e 14 321
e 14 325
e 14 354
e 14 379
e 14 381
e 14 404
e 15 17
e 15 18
e 15 20
e 15 22
e 15 24
e 15 25
e 15 26
e 15 27
e 15 28
e 15 29
e 15 32
e 15 33
e 15 34
e 15 37
e 15 38
e 15 39
e 15 40
e 15 43
e 15 44
e 15 46
e 15 50
e 15 53
e 15 54
e 15 55
e 15 56
e 15 59
e 15 62
e 15 63
e 15 65
e 15 68
e 15 71
e 15 77
e 15 78
e 15 79
e 15 80
e 15 81
e 15 85
e 15 89
e 15 92
e 15 95
e 15 97
e 15 101
e 15 107
e 15 108
e 15 109
e 15 111
e 15 114
e 15 115
e 15 117
e 15 120
e 15 125
e 15 130
e 15 131
e 15 132
e 15 138
e 15 142
e 15 143
e 15 152
e 15 153
e 15 156
e 15 160
e 15 163
e 15 165
e 15 172
e 15 174
e 15 179
e 15 187
e 15 188
e 15 189
e 15 196
e 15 198
e 15 201
e 15 203
e 15 205
e 15 206
e 15 207
e 15 208
e 15 209
e 15 211
e 15 213
e 15 217
e 15 218
e 15 220
e 15 222
e 15 223
e 15 225
e 15 231
e 15 232
e 15 236
e 15 240
e 15 241
e 15 242
e 15 243
e 15 244
e 15 245
e 15 254
e 15 257
e 15 264
e 15 265
e 15 267
e 15 269
e 15 270
e 15 272
e 15 275
e 15 276
e 15 277
e 15 279
e 15 280
e 15 282
e 15 283
e 15 288
e 15 289
e 15 298
e 15 302
e 15 307
e 15 308
e 15 309
e 15 310
e 15 317
e 15 320
e 15 321
e 15 323
e 15 325
e 15 326
e 15 327
e 15 329
e 15 330
e 15 333
e 15 335
e 15 336
e 15 337
e 15 338
e 15 339
e 15 340
e 15 342
e 15 345
e 15 347
e 15 350
e 15 354
e 15 355
e 15 356
e 15 357
e 15 359
e 15 360
e 15 362
e 15 363
e 15 365
e 15 367
e 15 368
e 15 370
e 15 372
e 15 373
e 15 374
e 15 375
e 15 377
e 15 378
e 15 379
e 15 380
e 15 382
e 15 392
e 15 394
e 15 395
e 15 396
e 15 402
e 15 403
e 15 405
e 15 407
e 15 408
e 15 409
e 15 412
e 15 413
e 15 414
e 15 416
e 15 420
e 15 422
e 15 423
e 15 426
e 15 427
e 15 429
e 15 430
e 15 433
e 15 435
e 15 437
e 15 438
e 15 440
e 15 441
e 15 442
e 15 443
e 15 446
e 15 447
e 15 448
e 15 449
e 15 454
e 15 455
e 16 22
e 16 25
e 16 27
e 16 28
e 16 29
e 16 40
e 16 44
e 16 48
e 16 50
e 16 51
e 16 52
e 16 55
e 16 59
e 16 60
e 16 61
e 16 62
e 16 64
e 16 79
e 16 80
e 16 86
e 16 101
e 16 103
e 16 114
e 16 126
e 16 128
e 16 129
e 16 130
e 16 133
e 16 138
e 16 139
e 16 147
e 16 153
e 16 155
e 16 156
e 16 161
e 16 163
e 16 164
e 16 165
e 16 166
e 16 169
e 16 172
e 16 174
e 16 178
e 16 187
e 16 189
e 16 191
e 16 195
e 16 196
e 16 201
e 16 208
e 16 216
e 16 217
e 16 222
e 16 225
e 16 229
e 16 239
e 16 240
e 16 241
e 16 245
e 16 254
e 16 256
e 16 257
e 16 263
e 16 273
e 16 274
e 16 275
e 16 277
e 16 280
e 16 283
e 16 286
e 16 292
e 16 299
e 16 300
e 16 301
e 16 303
e 16 305
e 16 306
e 16 313
e 16 314
e 16 315
e 16 317
e 16 320
e 16 321
e 16 324
e 16 325
e 16 327
e 16 332
e 16 333
e 16 337
e 16 344
e 16 345
e 16 351
e 16 352
e 16 354
e 16 362
e 16 376
e 16 379
e 16 381
e 16 393
e 16 404
e 16 413
e 16 415
e 16 425
e 16 438
e 16 442
e 16 456
e 17 18
e 17 19
e 17 25
e 17 28
e 17 29
e 17 37
e 17 38
e 17 39
e 17 40
e 17 43
e 17 46
e 17 59
e 17 60
e 17 61
e 17 62
e 17 63
e 17 64
e 17 77
e 17 78
e 17 79
e 17 80
e 17 89
e 17 97
e 17 107
e 17 108
e 17 117
e 17 120
e 17 130
e 17 138
e 17 139
e 17 142
e 17 155
e 17 156
e 17 189
e 17 198
e 17 201
e 17 208
e 17 217
e 17 218
e 17 222
e 17 228
e 17 231
e 17 242
e 17 243
e 17 245
e 17 254
e 17 260
e 17 272
e 17 276
e 17 280
e 17 282
e 17 283
e 17 292
e 17 299
e 17 300
e 17 305
e 17 307
e 17 309
e 17 310
e 17 316
e 17 319
e 17 321
e 17 322
e 17 325
e 17 329
e 17 330
e 17 333
e 17 339
e 17 350
e 17 355
e 17 365
e 17 373
e 17 374
e 17 375
e 17 379
e 17 381
e 17 403
e 17 404
e 17 407
e 17 412
e 17 416
e 17 417
e 17 424
e 17 427
e 17 447
e 17 450
e 18 19
e 18 20
e 18 21
e 18 22
e 18 24
e 18 25
e 18 26
e 18 27
e 18 28
e 18 29
e 18 31
e 18 32
e 18 33
e 18 34
e 18 35
e 18 37
e 18 38
e 18 39
e 18 40
e 18 43
e 18 44
e 18 46
e 18 48
e 18 50
e 18 53
e 18 54
e 18 55
e 18 56
e 18 59
e 18 60
e 18 61
e 18 62
e 18 63
e 18 64
e 18 68
e 18 69
e 18 70
e 18 71
e 18 75
e 18 77
e 18 78
e 18 79
e 18 80
e 18 81
e 18 82
e 18 83
e 18 88
e 18 89
e 18 90
e 18 92
e 18 94
e 18 95
e 18 97
e 18 98
e 18 101
e 18 103
e 18 104
e 18 107
e 18 108
e 18 109
e 18 111
e 18 114
e 18 117
e 18 120
e 18 122
e 18 123
e 18 125
e 18 126
e 18 128
e 18 130
e 18 131
e 18 132
e 18 136
e 18 138
e 18 139
e 18 141
e 18 142
e 18 143
e 18 144
e 18 146
e 18 152
e 18 153
e 18 154
e 18 155
e 18 156
e 18 159
e 18 160
e 18 161
e 18 163
e 18 164
e 18 165
e 18 171
e 18 172
e 18 173
e 18 174
e 18 175
e 18 178
e 18 179
e 18 180
e 18 181
e 18 182
e 18 184
e 18 186
e 18 187
e 18 189
e 18 192
e 18 195
e 18 196
e 18 197
e 18 198
e 18 199
e 18 200
e 18 201
e 18 205
e 18 207
e 18 208
e 18 209
e 18 210
e 18 211
e 18 213
e 18 215
e 18 216
e 18 217
e 18 218
e 18 219
e 18 220
e 18 222
e 18 223
e 18 225
e 18 226
e 18 227
e 18 228
e 18 231
e 18 232
e 18 234
e 18 235
e 18 236
e 18 237
e 18 240
e 18 241
e 18 242
e 18 243
e 18 244
e 18 245
e 18 246
e 18 247
e 18 248
e 18 249
e 18 250
e 18 251
e 18 253
e 18 254
e 18 255
e 18 256
e 18 257
e 18 258
e 18 259
e 18 260
e 18 262
e 18 264
e 18 265
e 18 266
e 18 267
e 18 269
e 18 270
e 18 271
e 18 272
e 18 273
e 18 275
e 18 276
e 18 277
e 18 279
e 18 280
e 18 282
e 18 283
e 18 284
e 18 285
e 18 286
e 18 287
e 18 288
e 18 289
e 18 291
e 18 292
e 18 293
e 18 294
e 18 295
e 18 296
e 18 297
e 18 298
e 18 299
e 18 300
e 18 302
e 18 304
e 18 305
e 18 306
e 18 307
e 18 308
e 18 309
e 18 310
e 18 311
e 18 312
e 18 316
e 18 317
e 18 318
e 18 319
e 18 320
e 18 321
e 18 322
e 18 323
e 18 325
e 18 326
e 18 327
e 18 328
e 18 329
e 18 330
e 18 331
e 18 333
e 18 334
e 18 335
e 18 336
e 18 337
e 18 338
e 18 339
e 18 340
e 18 341
e 18 342
e 18 345
e 18 346
e 18 347
e 18 348
e 18 349
e 18 350
e 18 352
e 18 353
e 18 354
e 18 355
e 18 356
e 18 357
e 18 359
e 18 360
e 18 361
e 18 362
e 18 364
e 18 365
e 18 366
e 18 367
e 18 368
e 18 370
e 18 371
e 18 372
e 18 373
e 18 374
e 18 375
e 18 376
e 18 377
e 18 378
e 18 379
e 18 380
e 18 381
e 18 382
e 18 383
e 18 384
e 18 385
e 18 386
e 18 391
e 18 392
e 18 394
e 18 395
e 18 396
e 18 397
e 18 398
e 18 399
e 18 400
e 18 401
e 18 402
e 18 403
e 18 404
e 18 405
e 18 406
e 18 407
e 18 408
e 18 409
e 18 410
e 18 411
e 18 412
e 18 413
e 18 414
e 18 415
e 18 416
e 18 417
e 18 418
e 18 419
e 18 420
e 18 421
e 18 422
e 18 423
e 18 424
e 18 425
e 18 426
e 18 427
e 18 428
e 18 429
e 18 430
e 18 432
e 18 434
e 18 435
e 18 436
e 18 437
e 18 438
e 18 439
e 18 440
e 18 441
e 18 442
e 18 443
e 18 444
e 18 445
e 18 446
e 18 447
e 18 448
e 18 449
e 18 450
e 18 451
e 18 452
e 18 454
e 18 455
e 18 456
e 18 457
e 18 460
e 18 461
e 18 462
e 18 463
e 18 467
e 18 469
e 18 470
e 18 473
e 18 475
e 18 476
e 18 477
e 18 478
e 18 479
e 18 480
e 18 481
e 18 484
e 18 485
e 18 486
e 18 491
e 18 496
e 18 498
e 18 502
e 18 503
e 18 504
e 18 505
e 18 506
e 18 513
e 18 514
e 18 515
e 18 516
e 18 521
e 18 525
e 18 528
e 18 530
e 18 537
e 18 538
e 18 539
e 18 541
e 18 542
e 18 545
e 18 546
e 18 551
e 18 552
e 18 554
e 18 555
e 18 556
e 18 562
e 18 563
e 18 565
e 18 568
e 18 570
e 18 571
e 18 577
e 18 578
e 18 580
e 18 581
e 18 582
e 18 583
e 18 584
e 18 585
e 18 590
e 18 593
e 18 596
e 18 599
e 18 603
e 18 607
e 18 608
e 18 610
e 18 611
e 18 612
e 18 615
e 18 616
e 18 618
e 18 619
e 18 620
e 18 621
e 18 622
e 18 623
e 18 624
e 18 626
e 18 628
e 18 629
e 18 630
e 18 631
e 18 632
e 18 633
e 18 634
e 18 636
e 18 639
e 18 640
e 18 641
e 18 642
e 18 644
e 18 645
e 18 646
e 18 647
e 18 648
e 18 651
e 18 653
e 18 654
e 18 657
e 18 658
e 18 659
e 18 662
e 18 665
e 18 667
e 18 669
e 18 670
e 18 671
e 18 672
e 18 673
e 18 677
e 18 678
e 18 679
e 18 680
e 18 681
e 18 682
e 18 684
e 18 686
e 18 687
e 18 688
e 18 690
e 18 691
e 18 692
e 18 696
e 18 697
e 18 699
e 18 700
e 18 702
e 18 703
e 18 704
e 18 705
e 18 706
e 18 707
e 18 710
e 18 711
e 18 713
e 18 714
e 18 715
e 18 716
e 18 717
e 18 718
e 18 719
e 18 720
e 18 721
e 18 727
e 18 728
e 18 729
e 18 730
e 18 731
e 18 732
e 18 733
e 18 734
e 18 735
e 18 736
e 18 737
e 18 738
e 18 739
e 18 740
e 18 741
e 18 742
e 18 744
e 18 745
e 18 746
e 18 747
e 18 748
e 18 750
e 18 751
e 18 752
e 18 753
e 18 754
e 18 755
e 18 756
e 18 757
e 18 758
e 18 759
e 18 760
e 18 761
e 18 762
e 18 763
e 18 764
e 18 765
e 18 766
e 18 767
e 18 768
e 18 769
e 18 770
e 18 771
e 18 772
e 18 773
e 18 774
e 18 775
e 18 776
e 18 777
e 18 778
e 19 21
e 19 27
e 19 28
e 19 29
e 19 38
e 19 55
e 19 59
e 19 60
e 19 61
e 19 62
e 19 63
e 19 64
e 19 71
e 19 77
e 19 79
e 19 80
e 19 89
e 19 90
e 19 94
e 19 95
e 19 101
e 19 108
e 19 126
e 19 130
e 19 138
e 19 139
e 19 142
e 19 152
e 19 155
e 19 156
e 19 160
e 19 165
e 19 174
e 19 179
e 19 189
e 19 196
e 19 198
e 19 203
e 19 208
e 19 209
e 19 228
e 19 242
e 19 245
e 19 254
e 19 257
e 19 272
e 19 281
e 19 283
e 19 285
e 19 286
e 19 289
e 19 299
e 19 300
e 19 319
e 19 321
e 19 325
e 19 327
e 19 341
e 19 351
e 19 355
e 19 357
e 19 361
e 19 362
e 19 369
e 19 373
e 19 375
e 19 379
e 19 381
e 19 384
e 19 388
e 19 404
e 19 405
e 19 412
e 19 417
e 19 418
e 19 434
e 19 438
e 19 441
e 19 445
e 19 774
e 20 21
e 20 22
e 20 24
e 20 26
e 20 27
e 20 28
e 20 29
e 20 31
e 20 32
e 20 33
e 20 34
e 20 35
e 20 37
e 20 40
e 20 46
e 20 48
e 20 50
e 20 53
e 20 54
e 20 55
e 20 56
e 20 59
e 20 62
e 20 68
e 20 71
e 20 77
e 20 79
e 20 88
e 20 89
e 20 101
e 20 107
e 20 108
e 20 109
e 20 110
e 20 111
e 20 112
e 20 113
e 20 114
e 20 117
e 20 119
e 20 128
e 20 130
e 20 131
e 20 132
e 20 134
e 20 138
e 20 139
e 20 142
e 20 151
e 20 156
e 20 161
e 20 164
e 20 165
e 20 172
e 20 174
e 20 189
e 20 192
e 20 195
e 20 200
e 20 203
e 20 208
e 20 209
e 20 211
e 20 213
e 20 216
e 20 217
e 20 219
e 20 222
e 20 225
e 20 227
e 20 234
e 20 236
e 20 239
e 20 240
e 20 242
e 20 244
e 20 245
e 20 249
e 20 254
e 20 255
e 20 256
e 20 275
e 20 277
e 20 279
e 20 280
e 20 283
e 20 289
e 20 297
e 20 299
e 20 300
e 20 305
e 20 317
e 20 320
e 20 321
e 20 325
e 20 338
e 20 345
e 20 347
e 20 348
e 20 354
e 20 371
e 20 374
e 20 378
e 20 382
e 20 392
e 20 397
e 20 402
e 20 404
e 20 410
e 20 413
e 20 415
e 20 420
e 20 423
e 20 425
e 20 426
e 20 437
e 20 442
e 20 447
e 20 449
e 20 450
e 20 451
e 20 774
e 21 22
e 21 24
e 21 25
e 21 26
e 21 27
e 21 28
e 21 29
e 21 31
e 21 33
e 21 35
e 21 37
e 21 40
e 21 53
e 21 55
e 21 59
e 21 62
e 21 63
e 21 69
e 21 71
e 21 78
e 21 79
e 21 80
e 21 81
e 21 89
e 21 90
e 21 92
e 21 94
e 21 95
e 21 97
e 21 101
e 21 103
e 21 107
e 21 108
e 21 117
e 21 122
e 21 123
e 21 125
e 21 126
e 21 130
e 21 132
e 21 134
e 21 138
e 21 142
e 21 151
e 21 153
e 21 160
e 21 161
e 21 163
e 21 175
e 21 179
e 21 181
e 21 189
e 21 195
e 21 200
e 21 201
e 21 203
e 21 207
e 21 208
e 21 209
e 21 213
e 21 217
e 21 220
e 21 222
e 21 227
e 21 234
e 21 236
e 21 240
e 21 242
e 21 245
e 21 254
e 21 257
e 21 260
e 21 264
e 21 265
e 21 266
e 21 267
e 21 270
e 21 272
e 21 276
e 21 277
e 21 280
e 21 281
e 21 285
e 21 286
e 21 289
e 21 292
e 21 293
e 21 305
e 21 307
e 21 308
e 21 309
e 21 316
e 21 320
e 21 321
e 21 323
e 21 325
e 21 328
e 21 333
e 21 338
e 21 340
e 21 347
e 21 351
e 21 354
e 21 356
e 21 357
e 21 362
e 21 365
e 21 368
e 21 369
e 21 370
e 21 372
e 21 377
e 21 378
e 21 380
e 21 383
e 21 388
e 21 399
e 21 401
e 21 402
e 21 405
e 21 406
e 21 413
e 21 416
e 21 418
e 21 424
e 21 434
e 21 437
e 21 438
e 21 440
e 21 441
e 21 442
e 21 444
e 21 445
e 21 450
e 21 451
e 21 774
e 22 24
e 22 25
e 22 26
e 22 27
e 22 28
e 22 29
e 22 31
e 22 33
e 22 35
e 22 37
e 22 38
e 22 39
e 22 40
e 22 41
e 22 43
e 22 46
e 22 48
e 22 50
e 22 53
e 22 55
e 22 59
e 22 62
e 22 63
e 22 68
e 22 69
e 22 70
e 22 71
e 22 75
e 22 77
e 22 78
e 22 79
e 22 81
e 22 88
e 22 89
e 22 92
e 22 94
e 22 95
e 22 101
e 22 102
e 22 103
e 22 107
e 22 108
e 22 109
e 22 111
e 22 114
e 22 125
e 22 128
e 22 130
e 22 131
e 22 132
e 22 134
e 22 135
e 22 138
e 22 139
e 22 140
e 22 141
e 22 146
e 22 151
e 22 152
e 22 153
e 22 154
e 22 156
e 22 157
e 22 159
e 22 160
e 22 161
e 22 165
e 22 172
e 22 175
e 22 179
e 22 187
e 22 188
e 22 189
e 22 191
e 22 192
e 22 195
e 22 196
e 22 198
e 22 200
e 22 201
e 22 203
e 22 205
e 22 207
e 22 208
e 22 209
e 22 211
e 22 212
e 22 213
e 22 215
e 22 216
e 22 217
e 22 222
e 22 223
e 22 225
e 22 227
e 22 228
e 22 229
e 22 231
e 22 236
e 22 240
e 22 241
e 22 242
e 22 243
e 22 244
e 22 245
e 22 246
e 22 253
e 22 254
e 22 255
e 22 256
e 22 257
e 22 260
e 22 266
e 22 267
e 22 272
e 22 274
e 22 275
e 22 277
e 22 278
e 22 279
e 22 280
e 22 284
e 22 286
e 22 289
e 22 291
e 22 292
e 22 293
e 22 297
e 22 298
e 22 299
e 22 300
e 22 304
e 22 306
e 22 307
e 22 310
e 22 313
e 22 316
e 22 317
e 22 318
e 22 319
e 22 320
e 22 321
e 22 323
e 22 324
e 22 325
e 22 326
e 22 327
e 22 329
e 22 333
e 22 335
e 22 336
e 22 338
e 22 344
e 22 345
e 22 347
e 22 349
e 22 354
e 22 357
e 22 359
e 22 360
e 22 362
e 22 368
e 22 374
e 22 376
e 22 377
e 22 378
e 22 381
e 22 382
e 22 392
e 22 394
e 22 395
e 22 396
e 22 399
e 22 402
e 22 404
e 22 405
e 22 407
e 22 408
e 22 409
e 22 412
e 22 413
e 22 417
e 22 418
e 22 419
e 22 423
e 22 427
e 22 429
e 22 430
e 22 433
e 22 434
e 22 435
e 22 436
e 22 438
e 22 440
e 22 442
e 22 443
e 22 448
e 22 449
e 22 451
e 22 454
e 22 455
e 22 456
e 22 461
e 22 475
e 22 478
e 22 500
e 22 502
e 22 514
e 22 530
e 22 537
e 22 545
e 22 571
e 22 593
e 22 595
e 22 599
e 22 609
e 22 614
e 22 626
e 22 633
e 22 651
e 22 659
e 22 661
e 22 668
e 22 679
e 22 682
e 22 695
e 22 696
e 22 731
e 22 734
e 22 741
e 22 743
e 22 749
e 22 774
e 23 25
e 23 28
e 23 30
e 23 32
e 23 33
e 23 34
e 23 36
e 23 38
e 23 62
e 23 71
e 23 77
e 23 80
e 23 81
e 23 89
e 23 128
e 23 131
e 23 133
e 23 156
e 23 208
e 23 215
e 23 222
e 23 271
e 23 277
e 23 280
e 23 320
e 23 329
e 23 346
e 23 347
e 23 373
e 23 391
e 23 408
e 23 409
e 23 415
e 23 428
e 23 446
e 24 25
e 24 26
e 24 27
e 24 28
e 24 29
e 24 31
e 24 32
e 24 33
e 24 35
e 24 37
e 24 40
e 24 46
e 24 50
e 24 53
e 24 54
e 24 55
e 24 56
e 24 59
e 24 62
e 24 63
e 24 68
e 24 77
e 24 79
e 24 89
e 24 94
e 24 97
e 24 101
e 24 107
e 24 108
e 24 109
e 24 114
e 24 125
e 24 126
e 24 130
e 24 132
e 24 134
e 24 136
e 24 138
e 24 142
e 24 151
e 24 156
e 24 158
e 24 159
e 24 160
e 24 161
e 24 162
e 24 163
e 24 165
e 24 167
e 24 168
e 24 171
e 24 172
e 24 173
e 24 174
e 24 178
e 24 189
e 24 192
e 24 195
e 24 196
e 24 200
e 24 201
e 24 203
e 24 208
e 24 209
e 24 210
e 24 211
e 24 213
e 24 217
e 24 222
e 24 227
e 24 232
e 24 234
e 24 236
e 24 240
e 24 242
e 24 243
e 24 244
e 24 245
e 24 247
e 24 248
e 24 250
e 24 251
e 24 252
e 24 255
e 24 256
e 24 259
e 24 273
e 24 275
e 24 276
e 24 277
e 24 279
e 24 280
e 24 283
e 24 303
e 24 305
e 24 311
e 24 317
e 24 319
e 24 320
e 24 321
e 24 325
e 24 328
e 24 329
e 24 337
e 24 338
e 24 344
e 24 352
e 24 353
e 24 354
e 24 362
e 24 368
e 24 374
e 24 389
e 24 392
e 24 393
e 24 402
e 24 404
e 24 406
e 24 416
e 24 420
e 24 423
e 24 426
e 24 437
e 24 442
e 24 447
e 24 449
e 24 450
e 24 455
e 25 28
e 25 29
e 25 30
e 25 31
e 25 32
e 25 33
e 25 34
e 25 35
e 25 36
e 25 37
e 25 38
e 25 39
e 25 40
e 25 43
e 25 44
e 25 46
e 25 49
e 25 50
e 25 51
e 25 52
e 25 55
e 25 57
e 25 58
e 25 59
e 25 62
e 25 63
e 25 69
e 25 71
e 25 77
e 25 78
e 25 79
e 25 80
e 25 81
e 25 82
e 25 89
e 25 90
e 25 92
e 25 94
e 25 95
e 25 101
e 25 107
e 25 108
e 25 111
e 25 114
e 25 117
e 25 128
e 25 129
e 25 130
e 25 131
e 25 132
e 25 133
e 25 138
e 25 142
e 25 145
e 25 147
e 25 148
e 25 153
e 25 156
e 25 158
e 25 159
e 25 160
e 25 161
e 25 162
e 25 163
e 25 164
e 25 165
e 25 167
e 25 168
e 25 171
e 25 173
e 25 174
e 25 175
e 25 176
e 25 178
e 25 179
e 25 180
e 25 181
e 25 182
e 25 184
e 25 185
e 25 186
e 25 187
e 25 188
e 25 189
e 25 193
e 25 195
e 25 196
e 25 197
e 25 198
e 25 200
e 25 201
e 25 203
e 25 207
e 25 208
e 25 209
e 25 211
e 25 213
e 25 214
e 25 215
e 25 216
e 25 217
e 25 219
e 25 220
e 25 222
e 25 224
e 25 225
e 25 227
e 25 229
e 25 230
e 25 233
e 25 234
e 25 235
e 25 236
e 25 237
e 25 239
e 25 240
e 25 241
e 25 243
e 25 245
e 25 249
e 25 254
e 25 255
e 25 256
e 25 257
e 25 260
e 25 262
e 25 263
e 25 265
e 25 271
e 25 272
e 25 273
e 25 275
e 25 276
e 25 277
e 25 278
e 25 279
e 25 280
e 25 283
e 25 284
e 25 285
e 25 286
e 25 287
e 25 289
e 25 290
e 25 292
e 25 293
e 25 294
e 25 295
e 25 296
e 25 297
e 25 298
e 25 301
e 25 303
e 25 305
e 25 306
e 25 309
e 25 313
e 25 315
e 25 316
e 25 317
e 25 318
e 25 319
e 25 320
e 25 321
e 25 322
e 25 324
e 25 325
e 25 327
e 25 329
e 25 331
e 25 332
e 25 333
e 25 335
e 25 336
e 25 337
e 25 338
e 25 342
e 25 343
e 25 344
e 25 345
e 25 346
e 25 347
e 25 348
e 25 351
e 25 352
e 25 354
e 25 357
e 25 362
e 25 363
e 25 364
e 25 366
e 25 368
e 25 371
e 25 373
e 25 376
e 25 377
e 25 378
e 25 382
e 25 387
e 25 390
e 25 391
e 25 393
e 25 397
e 25 401
e 25 402
e 25 403
e 25 404
e 25 405
e 25 406
e 25 408
e 25 409
e 25 410
e 25 413
e 25 415
e 25 417
e 25 423
e 25 424
e 25 425
e 25 428
e 25 433
e 25 435
e 25 438
e 25 442
e 25 446
e 25 448
e 25 450
e 25 451
e 25 452
e 25 454
e 25 456
e 26 27
e 26 28
e 26 29
e 26 31
e 26 33
e 26 35
e 26 37
e 26 40
e 26 59
e 26 62
e 26 78
e 26 79
e 26 92
e 26 101
e 26 107
e 26 108
e 26 130
e 26 132
e 26 134
e 26 138
e 26 151
e 26 152
e 26 161
e 26 195
e 26 196
e 26 205
e 26 208
e 26 213
e 26 222
e 26 225
e 26 227
e 26 240
e 26 242
e 26 243
e 26 245
e 26 254
e 26 257
e 26 277
e 26 279
e 26 289
e 26 325
e 26 326
e 26 336
e 26 338
e 26 345
e 26 354
e 26 378
e 26 394
e 26 395
e 26 396
e 26 405
e 26 407
e 26 409
e 26 429
e 26 430
e 26 448
e 27 28
e 27 29
e 27 31
e 27 33
e 27 34
e 27 35
e 27 37
e 27 40
e 27 43
e 27 46
e 27 53
e 27 55
e 27 59
e 27 62
e 27 63
e 27 69
e 27 71
e 27 75
e 27 78
e 27 79
e 27 80
e 27 81
e 27 89
e 27 90
e 27 92
e 27 94
e 27 95
e 27 99
e 27 101
e 27 103
e 27 107
e 27 108
e 27 114
e 27 115
e 27 117
e 27 121
e 27 125
e 27 126
e 27 128
e 27 130
e 27 131
e 27 132
e 27 134
e 27 138
e 27 139
e 27 141
e 27 142
e 27 151
e 27 153
e 27 156
e 27 160
e 27 161
e 27 163
e 27 164
e 27 165
e 27 166
e 27 169
e 27 170
e 27 172
e 27 174
e 27 175
e 27 178
e 27 179
e 27 181
e 27 187
e 27 189
e 27 195
e 27 196
e 27 199
e 27 200
e 27 201
e 27 203
e 27 205
e 27 208
e 27 209
e 27 216
e 27 217
e 27 218
e 27 219
e 27 220
e 27 222
e 27 225
e 27 226
e 27 227
e 27 231
e 27 236
e 27 238
e 27 240
e 27 241
e 27 242
e 27 243
e 27 244
e 27 245
e 27 246
e 27 249
e 27 251
e 27 254
e 27 257
e 27 258
e 27 260
e 27 263
e 27 265
e 27 266
e 27 267
e 27 269
e 27 272
e 27 273
e 27 277
e 27 280
e 27 281
e 27 282
e 27 283
e 27 285
e 27 286
e 27 289
e 27 291
e 27 293
e 27 297
e 27 305
e 27 307
e 27 308
e 27 309
e 27 310
e 27 312
e 27 314
e 27 315
e 27 316
e 27 318
e 27 320
e 27 321
e 27 323
e 27 325
e 27 326
e 27 327
e 27 329
e 27 333
e 27 337
e 27 338
e 27 340
e 27 345
e 27 347
e 27 349
e 27 350
e 27 351
e 27 354
e 27 356
e 27 362
e 27 365
e 27 368
e 27 369
e 27 370
e 27 371
e 27 372
e 27 373
e 27 374
e 27 375
e 27 376
e 27 377
e 27 378
e 27 379
e 27 380
e 27 381
e 27 382
e 27 383
e 27 386
e 27 388
e 27 391
e 27 399
e 27 400
e 27 401
e 27 402
e 27 405
e 27 406
e 27 407
e 27 410
e 27 411
e 27 413
e 27 415
e 27 416
e 27 418
e 27 421
e 27 422
e 27 423
e 27 425
e 27 427
e 27 428
e 27 429
e 27 430
e 27 431
e 27 432
e 27 434
e 27 435
e 27 436
e 27 437
e 27 438
e 27 439
e 27 440
e 27 441
e 27 442
e 27 444
e 27 445
e 27 446
e 27 447
e 27 448
e 27 449
e 27 451
e 27 453
e 27 455
e 27 456
e 27 457
e 27 460
e 27 461
e 27 462
e 27 467
e 27 469
e 27 471
e 27 473
e 27 475
e 27 477
e 27 478
e 27 479
e 27 480
e 27 481
e 27 484
e 27 485
e 27 486
e 27 491
e 27 496
e 27 498
e 27 502
e 27 505
e 27 513
e 27 514
e 27 515
e 27 516
e 27 521
e 27 523
e 27 525
e 27 526
e 27 528
e 27 529
e 27 530
e 27 531
e 27 532
e 27 533
e 27 534
e 27 536
e 27 537
e 27 538
e 27 539
e 27 540
e 27 543
e 27 545
e 27 546
e 27 551
e 27 552
e 27 562
e 27 563
e 27 566
e 27 568
e 27 570
e 27 571
e 27 577
e 27 578
e 27 580
e 27 581
e 27 582
e 27 583
e 27 592
e 27 593
e 27 595
e 27 599
e 27 601
e 27 607
e 27 608
e 27 609
e 27 610
e 27 611
e 27 612
e 27 616
e 27 617
e 27 618
e 27 620
e 27 621
e 27 622
e 27 623
e 27 624
e 27 626
e 27 629
e 27 632
e 27 633
e 27 636
e 27 638
e 27 639
e 27 640
e 27 641
e 27 642
e 27 643
e 27 644
e 27 647
e 27 648
e 27 650
e 27 651
e 27 654
e 27 656
e 27 657
e 27 658
e 27 659
e 27 661
e 27 662
e 27 663
e 27 665
e 27 668
e 27 670
e 27 671
e 27 672
e 27 675
e 27 676
e 27 677
e 27 679
e 27 680
e 27 681
e 27 682
e 27 684
e 27 686
e 27 687
e 27 691
e 27 692
e 27 695
e 27 696
e 27 699
e 27 700
e 27 701
e 27 703
e 27 705
e 27 706
e 27 707
e 27 708
e 27 711
e 27 714
e 27 715
e 27 716
e 27 717
e 27 718
e 27 719
e 27 720
e 27 724
e 27 727
e 27 728
e 27 729
e 27 731
e 27 732
e 27 733
e 27 734
e 27 735
e 27 736
e 27 737
e 27 738
e 27 739
e 27 740
e 27 741
e 27 743
e 27 745
e 27 746
e 27 747
e 27 748
e 27 749
e 27 752
e 27 753
e 27 754
e 27 755
e 27 756
e 27 757
e 27 758
e 27 763
e 27 764
e 27 766
e 27 767
e 27 768
e 27 770
e 27 772
e 27 773
e 27 774
e 27 775
e 27 778
e 28 29
e 28 30
e 28 31
e 28 32
e 28 33
e 28 34
e 28 35
e 28 36
e 28 37
e 28 38
e 28 39
e 28 40
e 28 43
e 28 44
e 28 46
e 28 48
e 28 53
e 28 59
e 28 60
e 28 61
e 28 62
e 28 63
e 28 64
e 28 65
e 28 69
e 28 71
e 28 75
e 28 77
e 28 78
e 28 79
e 28 80
e 28 81
e 28 85
e 28 86
e 28 88
e 28 89
e 28 90
e 28 91
e 28 92
e 28 94
e 28 95
e 28 97
e 28 101
e 28 103
e 28 107
e 28 108
e 28 109
e 28 111
e 28 114
e 28 117
e 28 119
e 28 120
e 28 124
e 28 125
e 28 126
e 28 128
e 28 130
e 28 131
e 28 132
e 28 133
e 28 134
e 28 136
e 28 138
e 28 139
e 28 140
e 28 141
e 28 142
e 28 144
e 28 149
e 28 151
e 28 152
e 28 155
e 28 156
e 28 157
e 28 160
e 28 161
e 28 163
e 28 165
e 28 171
e 28 173
e 28 174
e 28 175
e 28 177
e 28 178
e 28 179
e 28 186
e 28 187
e 28 189
e 28 192
e 28 195
e 28 196
e 28 198
e 28 199
e 28 200
e 28 201
e 28 203
e 28 205
e 28 207
e 28 208
e 28 209
e 28 210
e 28 212
e 28 213
e 28 215
e 28 216
e 28 217
e 28 218
e 28 220
e 28 222
e 28 223
e 28 226
e 28 227
e 28 228
e 28 231
e 28 232
e 28 234
e 28 236
e 28 238
e 28 240
e 28 242
e 28 243
e 28 244
e 28 245
e 28 246
e 28 247
e 28 248
e 28 249
e 28 250
e 28 251
e 28 255
e 28 256
e 28 257
e 28 258
e 28 259
e 28 260
e 28 261
e 28 262
e 28 265
e 28 266
e 28 267
e 28 268
e 28 269
e 28 271
e 28 272
e 28 273
e 28 275
e 28 276
e 28 277
e 28 279
e 28 280
e 28 282
e 28 283
e 28 285
e 28 286
e 28 291
e 28 292
e 28 293
e 28 297
e 28 298
e 28 299
e 28 300
e 28 301
e 28 304
e 28 305
e 28 307
e 28 308
e 28 309
e 28 310
e 28 311
e 28 312
e 28 313
e 28 316
e 28 317
e 28 319
e 28 320
e 28 321
e 28 323
e 28 325
e 28 327
e 28 328
e 28 329
e 28 330
e 28 333
e 28 334
e 28 335
e 28 336
e 28 338
e 28 339
e 28 341
e 28 342
e 28 343
e 28 346
e 28 347
e 28 348
e 28 349
e 28 350
e 28 352
e 28 354
e 28 355
e 28 357
e 28 358
e 28 359
e 28 360
e 28 361
e 28 362
e 28 363
e 28 364
e 28 365
e 28 366
e 28 367
e 28 368
e 28 370
e 28 371
e 28 373
e 28 374
e 28 375
e 28 376
e 28 378
e 28 379
e 28 380
e 28 381
e 28 382
e 28 383
e 28 384
e 28 389
e 28 391
e 28 392
e 28 397
e 28 398
e 28 399
e 28 400
e 28 402
e 28 403
e 28 404
e 28 405
e 28 406
e 28 407
e 28 408
e 28 409
e 28 410
e 28 411
e 28 412
e 28 414
e 28 415
e 28 416
e 28 417
e 28 418
e 28 419
e 28 420
e 28 421
e 28 422
e 28 423
e 28 424
e 28 426
e 28 427
e 28 428
e 28 432
e 28 433
e 28 435
e 28 436
e 28 437
e 28 438
e 28 439
e 28 440
e 28 443
e 28 446
e 28 447
e 28 448
e 28 449
e 28 450
e 28 454
e 28 455
e 28 456
e 28 457
e 28 460
e 28 461
e 28 464
e 28 465
e 28 466
e 28 467
e 28 468
e 28 469
e 28 470
e 28 471
e 28 472
e 28 473
e 28 474
e 28 475
e 28 476
e 28 477
e 28 478
e 28 479
e 28 480
e 28 481
e 28 482
e 28 483
e 28 484
e 28 485
e 28 486
e 28 489
e 28 491
e 28 493
e 28 496
e 28 502
e 28 503
e 28 504
e 28 505
e 28 506
e 28 513
e 28 514
e 28 515
e 28 516
e 28 517
e 28 518
e 28 519
e 28 521
e 28 522
e 28 530
e 28 537
e 28 538
e 28 540
e 28 541
e 28 542
e 28 545
e 28 546
e 28 548
e 28 551
e 28 552
e 28 553
e 28 556
e 28 560
e 28 562
e 28 565
e 28 566
e 28 568
e 28 570
e 28 571
e 28 578
e 28 579
e 28 580
e 28 581
e 28 582
e 28 590
e 28 593
e 28 596
e 28 599
e 28 603
e 28 604
e 28 607
e 28 608
e 28 610
e 28 615
e 28 616
e 28 618
e 28 620
e 28 621
e 28 624
e 28 626
e 28 628
e 28 629
e 28 630
e 28 631
e 28 632
e 28 633
e 28 634
e 28 635
e 28 636
e 28 640
e 28 642
e 28 643
e 28 644
e 28 645
e 28 646
e 28 647
e 28 648
e 28 651
e 28 654
e 28 658
e 28 662
e 28 665
e 28 666
e 28 670
e 28 671
e 28 672
e 28 673
e 28 674
e 28 675
e 28 677
e 28 678
e 28 680
e 28 681
e 28 682
e 28 684
e 28 686
e 28 687
e 28 690
e 28 691
e 28 692
e 28 693
e 28 695
e 28 696
e 28 697
e 28 702
e 28 704
e 28 705
e 28 706
e 28 707
e 28 708
e 28 709
e 28 710
e 28 711
e 28 713
e 28 714
e 28 716
e 28 717
e 28 718
e 28 719
e 28 724
e 28 730
e 28 731
e 28 734
e 28 736
e 28 738
e 28 739
e 28 740
e 28 742
e 28 743
e 28 744
e 28 745
e 28 746
e 28 747
e 28 748
e 28 750
e 28 751
e 28 753
e 28 754
e 28 755
e 28 756
e 28 758
e 28 759
e 28 762
e 28 766
e 28 769
e 28 775
e 29 31
e 29 32
e 29 33
e 29 34
e 29 35
e 29 37
e 29 38
e 29 39
e 29 40
e 29 43
e 29 44
e 29 46
e 29 50
e 29 55
e 29 59
e 29 62
e 29 63
e 29 65
e 29 71
e 29 72
e 29 73
e 29 74
e 29 75
e 29 76
e 29 77
e 29 78
e 29 79
e 29 80
e 29 81
e 29 85
e 29 89
e 29 90
e 29 92
e 29 94
e 29 95
e 29 97
e 29 99
e 29 101
e 29 103
e 29 107
e 29 108
e 29 111
e 29 114
e 29 116
e 29 117
e 29 118
e 29 120
e 29 125
e 29 126
e 29 128
e 29 130
e 29 131
e 29 132
e 29 133
e 29 134
e 29 136
e 29 137
e 29 138
e 29 139
e 29 141
e 29 142
e 29 143
e 29 147
e 29 151
e 29 152
e 29 153
e 29 156
e 29 160
e 29 161
e 29 163
e 29 164
e 29 165
e 29 166
e 29 169
e 29 172
e 29 173
e 29 174
e 29 175
e 29 176
e 29 177
e 29 178
e 29 179
e 29 181
e 29 184
e 29 186
e 29 187
e 29 189
e 29 195
e 29 196
e 29 198
e 29 199
e 29 200
e 29 201
e 29 202
e 29 203
e 29 205
e 29 206
e 29 207
e 29 208
e 29 209
e 29 211
e 29 213
e 29 215
e 29 216
e 29 217
e 29 218
e 29 219
e 29 220
e 29 221
e 29 222
e 29 223
e 29 225
e 29 227
e 29 231
e 29 232
e 29 233
e 29 234
e 29 235
e 29 236
e 29 240
e 29 241
e 29 242
e 29 243
e 29 244
e 29 245
e 29 246
e 29 249
e 29 251
e 29 254
e 29 255
e 29 256
e 29 257
e 29 258
e 29 260
e 29 263
e 29 264
e 29 265
e 29 267
e 29 268
e 29 269
e 29 270
e 29 273
e 29 276
e 29 277
e 29 279
e 29 280
e 29 281
e 29 282
e 29 283
e 29 285
e 29 286
e 29 289
e 29 290
e 29 292
e 29 293
e 29 296
e 29 297
e 29 298
e 29 302
e 29 303
e 29 304
e 29 305
e 29 307
e 29 309
e 29 310
e 29 313
e 29 314
e 29 315
e 29 316
e 29 317
e 29 318
e 29 319
e 29 320
e 29 321
e 29 322
e 29 323
e 29 325
e 29 326
e 29 327
e 29 329
e 29 330
e 29 333
e 29 335
e 29 336
e 29 337
e 29 338
e 29 339
e 29 340
e 29 341
e 29 342
e 29 343
e 29 345
e 29 347
e 29 348
e 29 349
e 29 350
e 29 352
e 29 353
e 29 354
e 29 355
e 29 357
e 29 359
e 29 360
e 29 361
e 29 362
e 29 363
e 29 364
e 29 365
e 29 366
e 29 367
e 29 368
e 29 369
e 29 371
e 29 372
e 29 373
e 29 374
e 29 376
e 29 377
e 29 378
e 29 380
e 29 382
e 29 383
e 29 384
e 29 385
e 29 386
e 29 388
e 29 394
e 29 395
e 29 396
e 29 397
e 29 398
e 29 399
e 29 400
e 29 401
e 29 402
e 29 403
e 29 404
e 29 405
e 29 407
e 29 408
e 29 409
e 29 410
e 29 411
e 29 412
e 29 413
e 29 414
e 29 415
e 29 416
e 29 418
e 29 419
e 29 422
e 29 423
e 29 424
e 29 425
e 29 427
e 29 428
e 29 429
e 29 430
e 29 433
e 29 435
e 29 436
e 29 437
e 29 438
e 29 439
e 29 440
e 29 442
e 29 443
e 29 444
e 29 445
e 29 446
e 29 447
e 29 448
e 29 449
e 29 450
e 29 451
e 29 452
e 29 454
e 29 455
e 29 456
e 29 457
e 29 460
e 29 462
e 29 475
e 29 476
e 29 478
e 29 479
e 29 480
e 29 481
e 29 486
e 29 491
e 29 496
e 29 498
e 29 502
e 29 505
e 29 513
e 29 514
e 29 516
e 29 530
e 29 545
e 29 546
e 29 552
e 29 558
e 29 563
e 29 564
e 29 568
e 29 570
e 29 571
e 29 577
e 29 581
e 29 583
e 29 588
e 29 596
e 29 599
e 29 607
e 29 622
e 29 623
e 29 635
e 29 640
e 29 642
e 29 644
e 29 648
e 29 652
e 29 653
e 29 656
e 29 657
e 29 662
e 29 664
e 29 665
e 29 672
e 29 674
e 29 679
e 29 680
e 29 681
e 29 682
e 29 687
e 29 690
e 29 691
e 29 696
e 29 704
e 29 707
e 29 708
e 29 715
e 29 716
e 29 721
e 29 724
e 29 731
e 29 733
e 29 734
e 29 735
e 29 736
e 29 738
e 29 742
e 29 744
e 29 750
e 29 752
e 29 754
e 29 760
e 29 762
e 29 764
e 29 769
e 29 770
e 29 773
e 29 774
e 29 778
e 30 32
e 30 33
e 30 34
e 30 36
e 30 38
e 30 62
e 30 71
e 30 77
e 30 80
e 30 81
e 30 89
e 30 128
e 30 131
e 30 133
e 30 156
e 30 208
e 30 215
e 30 222
e 30 271
e 30 277
e 30 280
e 30 320
e 30 329
e 30 346
e 30 347
e 30 373
e 30 391
e 30 408
e 30 409
e 30 415
e 30 428
e 30 446
e 31 32
e 31 33
e 31 34
e 31 35
e 31 37
e 31 40
e 31 43
e 31 46
e 31 48
e 31 50
e 31 59
e 31 62
e 31 63
e 31 67
e 31 69
e 31 70
e 31 71
e 31 77
e 31 78
e 31 79
e 31 80
e 31 81
e 31 82
e 31 83
e 31 88
e 31 89
e 31 90
e 31 94
e 31 95
e 31 97
e 31 101
e 31 105
e 31 106
e 31 107
e 31 108
e 31 111
e 31 114
e 31 117
e 31 119
e 31 122
e 31 123
e 31 127
e 31 128
e 31 130
e 31 131
e 31 132
e 31 134
e 31 138
e 31 139
e 31 146
e 31 150
e 31 151
e 31 154
e 31 155
e 31 156
e 31 159
e 31 161
e 31 164
e 31 165
e 31 174
e 31 177
e 31 178
e 31 179
e 31 180
e 31 182
e 31 184
e 31 186
e 31 189
e 31 192
e 31 194
e 31 195
e 31 196
e 31 197
e 31 198
e 31 200
e 31 201
e 31 203
e 31 205
e 31 207
e 31 208
e 31 209
e 31 213
e 31 215
e 31 216
e 31 217
e 31 219
e 31 222
e 31 224
e 31 227
e 31 228
e 31 234
e 31 235
e 31 236
e 31 240
e 31 242
e 31 245
e 31 246
e 31 249
e 31 251
e 31 252
e 31 253
e 31 254
e 31 256
e 31 257
e 31 259
e 31 264
e 31 265
e 31 266
e 31 267
e 31 270
e 31 271
e 31 272
e 31 275
e 31 276
e 31 277
e 31 279
e 31 280
e 31 283
e 31 284
e 31 285
e 31 286
e 31 287
e 31 289
e 31 291
e 31 292
e 31 293
e 31 294
e 31 295
e 31 296
e 31 298
e 31 299
e 31 300
e 31 305
e 31 306
e 31 307
e 31 317
e 31 318
e 31 319
e 31 321
e 31 322
e 31 325
e 31 328
e 31 335
e 31 337
e 31 338
e 31 346
e 31 347
e 31 348
e 31 349
e 31 354
e 31 356
e 31 357
e 31 362
e 31 366
e 31 368
e 31 370
e 31 371
e 31 378
e 31 382
e 31 385
e 31 389
e 31 390
e 31 391
e 31 392
e 31 397
e 31 399
e 31 402
e 31 404
e 31 406
e 31 408
e 31 409
e 31 410
e 31 413
e 31 415
e 31 416
e 31 420
e 31 422
e 31 423
e 31 424
e 31 425
e 31 428
e 31 435
e 31 438
e 31 442
e 31 447
e 31 450
e 31 451
e 31 452
e 31 454
e 31 455
e 31 456
e 32 33
e 32 34
e 32 35
e 32 36
e 32 38
e 32 40
e 32 46
e 32 50
e 32 53
e 32 54
e 32 55
e 32 56
e 32 59
e 32 62
e 32 67
e 32 68
e 32 69
e 32 71
e 32 77
e 32 79
e 32 80
e 32 81
e 32 83
e 32 89
e 32 95
e 32 101
e 32 105
e 32 106
e 32 107
e 32 108
e 32 109
e 32 114
e 32 117
e 32 127
e 32 128
e 32 131
e 32 132
e 32 133
e 32 138
e 32 142
e 32 151
e 32 156
e 32 159
e 32 160
e 32 161
e 32 165
e 32 172
e 32 173
e 32 174
e 32 179
e 32 186
e 32 189
e 32 190
e 32 194
e 32 195
e 32 196
e 32 197
e 32 199
e 32 200
e 32 201
e 32 203
e 32 204
e 32 205
e 32 207
e 32 208
e 32 209
e 32 210
e 32 211
e 32 213
e 32 215
e 32 216
e 32 217
e 32 218
e 32 220
e 32 221
e 32 222
e 32 227
e 32 234
e 32 236
e 32 240
e 32 244
e 32 245
e 32 248
e 32 249
e 32 251
e 32 252
e 32 254
e 32 255
e 32 258
e 32 261
e 32 271
e 32 272
e 32 275
e 32 277
e 32 279
e 32 280
e 32 283
e 32 285
e 32 286
e 32 289
e 32 293
e 32 294
e 32 295
e 32 298
e 32 305
e 32 308
e 32 312
e 32 317
e 32 318
e 32 320
e 32 321
e 32 325
e 32 327
e 32 329
e 32 331
e 32 334
e 32 337
e 32 338
e 32 346
e 32 347
e 32 350
e 32 352
e 32 354
e 32 357
e 32 362
e 32 364
e 32 366
e 32 368
e 32 371
e 32 373
e 32 374
e 32 383
e 32 385
e 32 389
e 32 390
e 32 391
e 32 392
e 32 398
e 32 400
e 32 402
e 32 403
e 32 407
e 32 408
e 32 409
e 32 411
e 32 413
e 32 414
e 32 415
e 32 420
e 32 422
e 32 423
e 32 426
e 32 428
e 32 432
e 32 433
e 32 435
e 32 437
e 32 438
e 32 442
e 32 443
e 32 446
e 32 448
e 32 449
e 32 455
e 32 456
e 32 467
e 32 468
e 32 471
e 32 475
e 32 478
e 32 480
e 32 486
e 32 493
e 32 498
e 32 502
e 32 505
e 32 513
e 32 514
e 32 520
e 32 527
e 32 530
e 32 545
e 32 547
e 32 549
e 32 551
e 32 552
e 32 558
e 32 563
e 32 564
e 32 571
e 32 581
e 32 583
e 32 587
e 32 589
e 32 590
e 32 594
e 32 596
e 32 599
e 32 607
e 32 613
e 32 615
e 32 621
e 32 622
e 32 625
e 32 626
e 32 642
e 32 646
e 32 648
e 32 649
e 32 652
e 32 656
e 32 657
e 32 658
e 32 663
e 32 664
e 32 665
e 32 669
e 32 680
e 32 681
e 32 682
e 32 683
e 32 684
e 32 685
e 32 690
e 32 691
e 32 694
e 32 696
e 32 707
e 32 714
e 32 715
e 32 716
e 32 731
e 32 732
e 32 741
e 32 744
e 32 754
e 32 761
e 32 765
e 32 769
e 32 776
e 32 777
e 33 34
e 33 35
e 33 36
e 33 37
e 33 38
e 33 40
e 33 43
e 33 46
e 33 50
e 33 53
e 33 55
e 33 58
e 33 59
e 33 62
e 33 63
e 33 66
e 33 68
e 33 69
e 33 71
e 33 77
e 33 78
e 33 79
e 33 80
e 33 81
e 33 83
e 33 87
e 33 89
e 33 92
e 33 95
e 33 101
e 33 107
e 33 108
e 33 111
e 33 114
e 33 117
e 33 125
e 33 127
e 33 128
e 33 130
e 33 131
e 33 132
e 33 133
e 33 134
e 33 138
e 33 142
e 33 143
e 33 151
e 33 153
e 33 156
e 33 159
e 33 160
e 33 161
e 33 163
e 33 164
e 33 165
e 33 174
e 33 179
e 33 181
e 33 182
e 33 186
e 33 187
e 33 188
e 33 189
e 33 190
e 33 194
e 33 195
e 33 196
e 33 200
e 33 201
e 33 203
e 33 205
e 33 207
e 33 208
e 33 209
e 33 212
e 33 213
e 33 214
e 33 215
e 33 217
e 33 220
e 33 222
e 33 223
e 33 227
e 33 231
e 33 232
e 33 233
e 33 234
e 33 235
e 33 236
e 33 237
e 33 240
e 33 242
e 33 245
e 33 248
e 33 249
e 33 251
e 33 252
e 33 254
e 33 261
e 33 264
e 33 265
e 33 267
e 33 269
e 33 270
e 33 271
e 33 272
e 33 277
e 33 279
e 33 280
e 33 283
e 33 285
e 33 286
e 33 288
e 33 289
e 33 295
e 33 296
e 33 298
e 33 302
e 33 305
e 33 310
e 33 312
e 33 320
e 33 321
e 33 323
e 33 325
e 33 326
e 33 329
e 33 330
e 33 331
e 33 333
e 33 334
e 33 335
e 33 336
e 33 337
e 33 338
e 33 339
e 33 340
e 33 343
e 33 346
e 33 347
e 33 354
e 33 357
e 33 359
e 33 362
e 33 364
e 33 366
e 33 367
e 33 368
e 33 372
e 33 373
e 33 374
e 33 377
e 33 378
e 33 382
e 33 383
e 33 389
e 33 391
e 33 398
e 33 401
e 33 402
e 33 403
e 33 405
e 33 406
e 33 407
e 33 408
e 33 409
e 33 413
e 33 414
e 33 415
e 33 417
e 33 420
e 33 422
e 33 423
e 33 426
e 33 427
e 33 428
e 33 433
e 33 435
e 33 437
e 33 438
e 33 440
e 33 442
e 33 443
e 33 444
e 33 445
e 33 446
e 33 447
e 33 449
e 33 450
e 33 451
e 33 454
e 33 455
e 34 36
e 34 38
e 34 46
e 34 48
e 34 50
e 34 53
e 34 55
e 34 59
e 34 62
e 34 63
e 34 69
e 34 71
e 34 77
e 34 79
e 34 80
e 34 81
e 34 88
e 34 89
e 34 95
e 34 97
e 34 99
e 34 101
e 34 107
e 34 108
e 34 114
e 34 116
e 34 117
e 34 118
e 34 119
e 34 125
e 34 128
e 34 130
e 34 131
e 34 132
e 34 133
e 34 138
e 34 139
e 34 153
e 34 156
e 34 160
e 34 161
e 34 163
e 34 174
e 34 179
e 34 181
e 34 189
e 34 195
e 34 201
e 34 205
e 34 208
e 34 209
e 34 215
e 34 216
e 34 217
e 34 219
e 34 220
e 34 222
e 34 223
e 34 232
e 34 234
e 34 241
e 34 243
e 34 249
e 34 251
e 34 254
e 34 257
e 34 265
e 34 271
e 34 272
e 34 273
e 34 275
e 34 277
e 34 279
e 34 280
e 34 281
e 34 286
e 34 288
e 34 289
e 34 298
e 34 302
e 34 303
e 34 305
e 34 310
e 34 313
e 34 314
e 34 317
e 34 318
e 34 320
e 34 321
e 34 323
e 34 325
e 34 326
e 34 329
e 34 330
e 34 333
e 34 334
e 34 335
e 34 337
e 34 338
e 34 345
e 34 346
e 34 347
e 34 348
e 34 349
e 34 352
e 34 354
e 34 359
e 34 362
e 34 367
e 34 368
e 34 371
e 34 372
e 34 373
e 34 376
e 34 378
e 34 386
e 34 391
e 34 397
e 34 398
e 34 402
e 34 404
e 34 405
e 34 407
e 34 408
e 34 409
e 34 410
e 34 414
e 34 415
e 34 420
e 34 422
e 34 423
e 34 428
e 34 436
e 34 437
e 34 439
e 34 440
e 34 443
e 34 444
e 34 445
e 34 446
e 34 447
e 34 449
e 34 450
e 34 455
e 35 37
e 35 40
e 35 43
e 35 46
e 35 49
e 35 53
e 35 59
e 35 62
e 35 63
e 35 69
e 35 71
e 35 77
e 35 79
e 35 80
e 35 81
e 35 89
e 35 90
e 35 95
e 35 97
e 35 101
e 35 107
e 35 108
e 35 111
e 35 114
e 35 117
e 35 122
e 35 123
e 35 130
e 35 131
e 35 132
e 35 134
e 35 138
e 35 142
e 35 151
e 35 161
e 35 165
e 35 175
e 35 176
e 35 178
e 35 179
e 35 185
e 35 186
e 35 189
e 35 190
e 35 195
e 35 200
e 35 201
e 35 203
e 35 205
e 35 207
e 35 208
e 35 209
e 35 211
e 35 212
e 35 213
e 35 215
e 35 217
e 35 220
e 35 222
e 35 227
e 35 234
e 35 236
e 35 237
e 35 240
e 35 242
e 35 245
e 35 256
e 35 261
e 35 262
e 35 264
e 35 266
e 35 267
e 35 270
e 35 272
e 35 276
e 35 277
e 35 279
e 35 280
e 35 283
e 35 285
e 35 295
e 35 297
e 35 298
e 35 307
e 35 312
e 35 317
e 35 320
e 35 325
e 35 328
e 35 334
e 35 336
e 35 338
e 35 343
e 35 347
e 35 348
e 35 354
e 35 356
e 35 357
e 35 362
e 35 366
e 35 368
e 35 371
e 35 378
e 35 389
e 35 397
e 35 398
e 35 402
e 35 403
e 35 406
e 35 407
e 35 409
e 35 410
e 35 414
e 35 416
e 35 426
e 35 428
e 35 433
e 35 435
e 35 440
e 35 443
e 35 452
e 35 456
e 36 38
e 36 62
e 36 71
e 36 77
e 36 80
e 36 81
e 36 89
e 36 128
e 36 131
e 36 133
e 36 156
e 36 208
e 36 215
e 36 222
e 36 271
e 36 277
e 36 280
e 36 320
e 36 329
e 36 346
e 36 347
e 36 373
e 36 391
e 36 408
e 36 409
e 36 415
e 36 428
e 36 446
e 37 40
e 37 43
e 37 46
e 37 49
e 37 50
e 37 55
e 37 58
e 37 59
e 37 62
e 37 63
e 37 71
e 37 72
e 37 73
e 37 74
e 37 75
e 37 76
e 37 77
e 37 78
e 37 79
e 37 80
e 37 81
e 37 87
e 37 89
e 37 90
e 37 92
e 37 93
e 37 94
e 37 95
e 37 96
e 37 97
e 37 98
e 37 99
e 37 100
e 37 101
e 37 103
e 37 108
e 37 111
e 37 114
e 37 117
e 37 120
e 37 130
e 37 131
e 37 132
e 37 134
e 37 138
e 37 142
e 37 151
e 37 152
e 37 156
e 37 161
e 37 164
e 37 165
e 37 174
e 37 175
e 37 176
e 37 178
e 37 179
e 37 182
e 37 183
e 37 185
e 37 186
e 37 187
e 37 189
e 37 195
e 37 196
e 37 200
e 37 201
e 37 203
e 37 207
e 37 208
e 37 209
e 37 211
e 37 213
e 37 215
e 37 217
e 37 218
e 37 220
e 37 222
e 37 227
e 37 230
e 37 231
e 37 233
e 37 234
e 37 236
e 37 237
e 37 240
e 37 242
e 37 245
e 37 249
e 37 254
e 37 256
e 37 257
e 37 258
e 37 262
e 37 264
e 37 265
e 37 267
e 37 269
e 37 270
e 37 272
e 37 273
e 37 276
e 37 277
e 37 279
e 37 280
e 37 282
e 37 283
e 37 285
e 37 286
e 37 287
e 37 295
e 37 296
e 37 297
e 37 298
e 37 306
e 37 307
e 37 310
e 37 317
e 37 319
e 37 320
e 37 321
e 37 325
e 37 329
e 37 330
e 37 335
e 37 338
e 37 339
e 37 340
e 37 341
e 37 347
e 37 348
e 37 349
e 37 350
e 37 354
e 37 356
e 37 357
e 37 362
e 37 365
e 37 366
e 37 368
e 37 371
e 37 374
e 37 375
e 37 378
e 37 381
e 37 385
e 37 391
e 37 397
e 37 402
e 37 403
e 37 405
e 37 407
e 37 408
e 37 409
e 37 410
e 37 413
e 37 414
e 37 416
e 37 423
e 37 425
e 37 427
e 37 428
e 37 435
e 37 438
e 37 442
e 37 447
e 37 452
e 37 454
e 37 456
e 38 40
e 38 50
e 38 59
e 38 60
e 38 61
e 38 62
e 38 63
e 38 64
e 38 71
e 38 77
e 38 78
e 38 79
e 38 80
e 38 81
e 38 89
e 38 94
e 38 95
e 38 101
e 38 107
e 38 108
e 38 125
e 38 128
e 38 130
e 38 131
e 38 133
e 38 138
e 38 139
e 38 142
e 38 143
e 38 152
e 38 155
e 38 156
e 38 157
e 38 160
e 38 163
e 38 165
e 38 175
e 38 179
e 38 189
e 38 198
e 38 200
e 38 208
e 38 209
e 38 215
e 38 220
e 38 222
e 38 223
e 38 228
e 38 240
e 38 242
e 38 245
e 38 256
e 38 257
e 38 260
e 38 267
e 38 271
e 38 272
e 38 273
e 38 277
e 38 280
e 38 293
e 38 299
e 38 300
e 38 302
e 38 304
e 38 309
e 38 310
e 38 316
e 38 319
e 38 320
e 38 321
e 38 323
e 38 325
e 38 326
e 38 327
e 38 329
e 38 346
e 38 347
e 38 349
e 38 355
e 38 357
e 38 361
e 38 362
e 38 367
e 38 368
e 38 370
e 38 372
e 38 373
e 38 375
e 38 376
e 38 377
e 38 378
e 38 379
e 38 380
e 38 381
e 38 382
e 38 391
e 38 404
e 38 408
e 38 409
e 38 412
e 38 415
e 38 417
e 38 418
e 38 419
e 38 422
e 38 428
e 38 435
e 38 437
e 38 438
e 38 440
e 38 446
e 38 449
e 39 40
e 39 44
e 39 46
e 39 57
e 39 59
e 39 62
e 39 63
e 39 65
e 39 71
e 39 77
e 39 78
e 39 79
e 39 80
e 39 81
e 39 85
e 39 86
e 39 89
e 39 92
e 39 94
e 39 101
e 39 103
e 39 107
e 39 108
e 39 111
e 39 125
e 39 130
e 39 131
e 39 132
e 39 133
e 39 138
e 39 141
e 39 142
e 39 148
e 39 156
e 39 160
e 39 161
e 39 163
e 39 164
e 39 165
e 39 177
e 39 179
e 39 180
e 39 187
e 39 189
e 39 193
e 39 195
e 39 196
e 39 198
e 39 200
e 39 201
e 39 203
e 39 206
e 39 208
e 39 209
e 39 217
e 39 219
e 39 220
e 39 222
e 39 223
e 39 228
e 39 230
e 39 231
e 39 232
e 39 240
e 39 242
e 39 243
e 39 244
e 39 245
e 39 249
e 39 254
e 39 255
e 39 257
e 39 258
e 39 260
e 39 265
e 39 266
e 39 272
e 39 273
e 39 276
e 39 277
e 39 280
e 39 282
e 39 283
e 39 285
e 39 286
e 39 287
e 39 289
e 39 292
e 39 293
e 39 294
e 39 301
e 39 305
e 39 309
e 39 310
e 39 313
e 39 316
e 39 318
e 39 319
e 39 320
e 39 321
e 39 322
e 39 323
e 39 325
e 39 327
e 39 329
e 39 333
e 39 335
e 39 338
e 39 341
e 39 342
e 39 347
e 39 349
e 39 350
e 39 354
e 39 355
e 39 357
e 39 359
e 39 360
e 39 362
e 39 363
e 39 364
e 39 368
e 39 369
e 39 373
e 39 375
e 39 376
e 39 377
e 39 379
e 39 380
e 39 381
e 39 382
e 39 384
e 39 399
e 39 402
e 39 403
e 39 412
e 39 417
e 39 419
e 39 422
e 39 424
e 39 425
e 39 427
e 39 435
e 39 436
e 39 437
e 39 438
e 39 439
e 39 442
e 39 444
e 39 446
e 39 450
e 39 451
e 39 454
e 40 41
e 40 43
e 40 44
e 40 46
e 40 50
e 40 53
e 40 55
e 40 59
e 40 60
e 40 61
e 40 62
e 40 64
e 40 65
e 40 69
e 40 70
e 40 71
e 40 75
e 40 77
e 40 78
e 40 79
e 40 80
e 40 81
e 40 86
e 40 89
e 40 92
e 40 94
e 40 95
e 40 99
e 40 101
e 40 103
e 40 105
e 40 106
e 40 107
e 40 108
e 40 109
e 40 110
e 40 111
e 40 112
e 40 113
e 40 114
e 40 117
e 40 125
e 40 126
e 40 128
e 40 130
e 40 131
e 40 132
e 40 133
e 40 134
e 40 138
e 40 139
e 40 142
e 40 143
e 40 146
e 40 147
e 40 151
e 40 152
e 40 153
e 40 154
e 40 155
e 40 156
e 40 157
e 40 158
e 40 159
e 40 160
e 40 161
e 40 162
e 40 163
e 40 164
e 40 165
e 40 166
e 40 167
e 40 168
e 40 169
e 40 171
e 40 172
e 40 173
e 40 174
e 40 175
e 40 177
e 40 178
e 40 179
e 40 189
e 40 194
e 40 195
e 40 196
e 40 197
e 40 198
e 40 199
e 40 200
e 40 201
e 40 202
e 40 203
e 40 205
e 40 208
e 40 209
e 40 213
e 40 215
e 40 216
e 40 217
e 40 218
e 40 219
e 40 220
e 40 222
e 40 223
e 40 224
e 40 225
e 40 227
e 40 228
e 40 236
e 40 239
e 40 240
e 40 241
e 40 242
e 40 243
e 40 244
e 40 245
e 40 246
e 40 249
e 40 253
e 40 254
e 40 255
e 40 256
e 40 257
e 40 258
e 40 260
e 40 263
e 40 266
e 40 267
e 40 272
e 40 273
e 40 274
e 40 275
e 40 276
e 40 277
e 40 278
e 40 279
e 40 280
e 40 283
e 40 284
e 40 285
e 40 286
e 40 289
e 40 290
e 40 291
e 40 292
e 40 293
e 40 294
e 40 297
e 40 298
e 40 299
e 40 300
e 40 301
e 40 302
e 40 303
e 40 304
e 40 305
e 40 307
e 40 309
e 40 310
e 40 313
e 40 314
e 40 315
e 40 316
e 40 317
e 40 318
e 40 319
e 40 320
e 40 321
e 40 322
e 40 323
e 40 325
e 40 326
e 40 327
e 40 329
e 40 333
e 40 335
e 40 336
e 40 337
e 40 338
e 40 341
e 40 342
e 40 343
e 40 344
e 40 345
e 40 346
e 40 347
e 40 349
e 40 350
e 40 352
e 40 354
e 40 355
e 40 356
e 40 357
e 40 361
e 40 362
e 40 363
e 40 364
e 40 367
e 40 368
e 40 369
e 40 370
e 40 372
e 40 373
e 40 375
e 40 376
e 40 377
e 40 378
e 40 379
e 40 380
e 40 381
e 40 382
e 40 384
e 40 385
e 40 387
e 40 390
e 40 393
e 40 394
e 40 395
e 40 396
e 40 399
e 40 401
e 40 402
e 40 403
e 40 404
e 40 405
e 40 407
e 40 409
e 40 412
e 40 413
e 40 415
e 40 417
e 40 418
e 40 419
e 40 422
e 40 423
e 40 424
e 40 425
e 40 429
e 40 430
e 40 434
e 40 435
e 40 436
e 40 437
e 40 438
e 40 439
e 40 440
e 40 442
e 40 443
e 40 444
e 40 446
e 40 448
e 40 449
e 40 450
e 40 451
e 40 452
e 40 455
e 40 457
e 40 458
e 40 459
e 40 460
e 40 461
e 40 462
e 40 471
e 40 475
e 40 478
e 40 481
e 40 484
e 40 487
e 40 490
e 40 491
e 40 492
e 40 493
e 40 500
e 40 502
e 40 513
e 40 514
e 40 515
e 40 516
e 40 523
e 40 524
e 40 526
e 40 530
e 40 537
e 40 545
e 40 546
e 40 551
e 40 571
e 40 583
e 40 593
e 40 595
e 40 599
e 40 607
e 40 609
e 40 614
e 40 618
e 40 620
e 40 623
e 40 626
e 40 633
e 40 646
e 40 648
e 40 651
e 40 659
e 40 661
e 40 662
e 40 668
e 40 678
e 40 679
e 40 681
e 40 682
e 40 695
e 40 696
e 40 713
e 40 730
e 40 731
e 40 734
e 40 739
e 40 741
e 40 743
e 40 749
e 40 766
e 41 50
e 41 62
e 41 78
e 41 101
e 41 103
e 41 107
e 41 108
e 41 138
e 41 146
e 41 159
e 41 165
e 41 189
e 41 200
e 41 201
e 41 208
e 41 209
e 41 222
e 41 223
e 41 240
e 41 242
e 41 243
e 41 254
e 41 256
e 41 260
e 41 274
e 41 275
e 41 277
e 41 278
e 41 280
e 41 284
e 41 292
e 41 317
e 41 325
e 41 376
e 41 377
e 41 442
e 42 80
e 42 93
e 42 94
e 42 97
e 42 108
e 42 138
e 42 196
e 42 207
e 42 222
e 42 230
e 42 279
e 42 287
e 42 356
e 42 402
e 43 46
e 43 49
e 43 53
e 43 55
e 43 59
e 43 62
e 43 63
e 43 69
e 43 71
e 43 75
e 43 78
e 43 79
e 43 80
e 43 81
e 43 87
e 43 89
e 43 90
e 43 92
e 43 94
e 43 95
e 43 97
e 43 101
e 43 103
e 43 108
e 43 114
e 43 117
e 43 120
e 43 131
e 43 138
e 43 139
e 43 141
e 43 142
e 43 152
e 43 154
e 43 155
e 43 156
e 43 160
e 43 164
e 43 165
e 43 171
e 43 174
e 43 175
e 43 176
e 43 177
e 43 179
e 43 185
e 43 186
e 43 187
e 43 189
e 43 199
e 43 200
e 43 201
e 43 203
e 43 204
e 43 207
e 43 208
e 43 209
e 43 211
e 43 213
e 43 215
e 43 216
e 43 217
e 43 218
e 43 220
e 43 222
e 43 228
e 43 231
e 43 233
e 43 236
e 43 237
e 43 238
e 43 240
e 43 242
e 43 244
e 43 246
e 43 249
e 43 251
e 43 254
e 43 256
e 43 257
e 43 258
e 43 262
e 43 264
e 43 266
e 43 267
e 43 269
e 43 270
e 43 272
e 43 273
e 43 275
e 43 276
e 43 277
e 43 279
e 43 280
e 43 282
e 43 283
e 43 285
e 43 286
e 43 291
e 43 292
e 43 295
e 43 297
e 43 298
e 43 299
e 43 300
e 43 307
e 43 309
e 43 310
e 43 312
e 43 319
e 43 320
e 43 321
e 43 325
e 43 329
e 43 330
e 43 337
e 43 338
e 43 339
e 43 340
e 43 341
e 43 342
e 43 345
e 43 347
e 43 349
e 43 350
e 43 354
e 43 356
e 43 357
e 43 362
e 43 364
e 43 365
e 43 366
e 43 368
e 43 370
e 43 371
e 43 373
e 43 374
e 43 381
e 43 382
e 43 383
e 43 391
e 43 399
e 43 400
e 43 403
e 43 404
e 43 405
e 43 407
e 43 409
e 43 410
e 43 411
e 43 413
e 43 414
e 43 416
e 43 421
e 43 422
e 43 423
e 43 427
e 43 428
e 43 432
e 43 436
e 43 438
e 43 446
e 43 447
e 43 452
e 43 456
e 43 457
e 43 460
e 43 461
e 43 462
e 43 467
e 43 468
e 43 469
e 43 470
e 43 473
e 43 475
e 43 476
e 43 477
e 43 479
e 43 480
e 43 481
e 43 485
e 43 486
e 43 489
e 43 491
e 43 496
e 43 498
e 43 500
e 43 502
e 43 505
e 43 513
e 43 514
e 43 516
e 43 518
e 43 528
e 43 530
e 43 537
e 43 546
e 43 551
e 43 552
e 43 563
e 43 568
e 43 570
e 43 571
e 43 572
e 43 574
e 43 577
e 43 578
e 43 579
e 43 580
e 43 581
e 43 583
e 43 593
e 43 599
e 43 602
e 43 607
e 43 609
e 43 612
e 43 614
e 43 615
e 43 616
e 43 622
e 43 623
e 43 626
e 43 632
e 43 633
e 43 637
e 43 642
e 43 647
e 43 648
e 43 651
e 43 654
e 43 657
e 43 658
e 43 659
e 43 661
e 43 668
e 43 671
e 43 676
e 43 677
e 43 679
e 43 680
e 43 681
e 43 682
e 43 684
e 43 690
e 43 692
e 43 696
e 43 699
e 43 701
e 43 702
e 43 704
e 43 705
e 43 706
e 43 709
e 43 710
e 43 711
e 43 712
e 43 714
e 43 715
e 43 716
e 43 717
e 43 718
e 43 719
e 43 721
e 43 723
e 43 731
e 43 734
e 43 736
e 43 740
e 43 741
e 43 743
e 43 746
e 43 748
e 43 749
e 43 751
e 43 752
e 43 753
e 43 754
e 43 755
e 43 756
e 43 757
e 43 758
e 43 759
e 43 762
e 43 763
e 43 767
e 43 770
e 43 775
e 43 777
e 43 778
e 44 48
e 44 50
e 44 51
e 44 52
e 44 59
e 44 62
e 44 63
e 44 65
e 44 71
e 44 77
e 44 79
e 44 80
e 44 81
e 44 85
e 44 86
e 44 89
e 44 101
e 44 103
e 44 107
e 44 108
e 44 111
e 44 114
e 44 128
e 44 129
e 44 130
e 44 131
e 44 132
e 44 138
e 44 142
e 44 147
e 44 153
e 44 161
e 44 163
e 44 165
e 44 174
e 44 177
e 44 187
e 44 189
e 44 191
e 44 193
e 44 196
e 44 198
e 44 200
e 44 201
e 44 203
e 44 205
e 44 208
e 44 216
e 44 217
e 44 220
e 44 222
e 44 223
e 44 224
e 44 225
e 44 228
e 44 229
e 44 239
e 44 240
e 44 241
e 44 242
e 44 243
e 44 245
e 44 249
e 44 254
e 44 256
e 44 257
e 44 260
e 44 263
e 44 265
e 44 267
e 44 272
e 44 273
e 44 275
e 44 277
e 44 280
e 44 285
e 44 286
e 44 292
e 44 298
e 44 301
e 44 303
e 44 306
e 44 313
e 44 315
e 44 317
e 44 320
e 44 321
e 44 324
e 44 325
e 44 327
e 44 329
e 44 332
e 44 335
e 44 336
e 44 337
e 44 338
e 44 342
e 44 344
e 44 345
e 44 347
e 44 349
e 44 351
e 44 352
e 44 354
e 44 355
e 44 362
e 44 363
e 44 364
e 44 368
e 44 373
e 44 376
e 44 377
e 44 380
e 44 382
e 44 387
e 44 390
e 44 393
e 44 399
e 44 412
e 44 417
e 44 435
e 44 436
e 44 437
e 44 442
e 44 446
e 44 451
e 44 452
e 44 454
e 44 456
e 45 46
e 45 47
e 45 79
e 45 89
e 45 107
e 45 108
e 45 148
e 45 165
e 45 183
e 45 195
e 45 200
e 45 219
e 45 230
e 45 257
e 45 272
e 45 285
e 45 287
e 45 293
e 45 294
e 45 321
e 45 347
e 45 402
e 45 425
e 46 47
e 46 48
e 46 49
e 46 50
e 46 53
e 46 55
e 46 57
e 46 59
e 46 62
e 46 63
e 46 69
e 46 71
e 46 72
e 46 73
e 46 74
e 46 75
e 46 76
e 46 77
e 46 78
e 46 79
e 46 80
e 46 81
e 46 82
e 46 88
e 46 89
e 46 90
e 46 92
e 46 95
e 46 97
e 46 101
e 46 105
e 46 106
e 46 107
e 46 108
e 46 111
e 46 114
e 46 115
e 46 117
e 46 119
e 46 120
e 46 124
e 46 125
e 46 127
e 46 128
e 46 130
e 46 131
e 46 132
e 46 138
e 46 140
e 46 141
e 46 142
e 46 148
e 46 149
e 46 151
e 46 153
e 46 156
e 46 159
e 46 160
e 46 161
e 46 164
e 46 165
e 46 173
e 46 174
e 46 175
e 46 176
e 46 178
e 46 179
e 46 180
e 46 183
e 46 185
e 46 186
e 46 187
e 46 189
e 46 190
e 46 194
e 46 195
e 46 196
e 46 197
e 46 199
e 46 200
e 46 201
e 46 203
e 46 205
e 46 207
e 46 208
e 46 209
e 46 211
e 46 212
e 46 213
e 46 215
e 46 216
e 46 217
e 46 218
e 46 219
e 46 220
e 46 221
e 46 222
e 46 223
e 46 227
e 46 230
e 46 231
e 46 233
e 46 234
e 46 236
e 46 237
e 46 238
e 46 240
e 46 241
e 46 244
e 46 245
e 46 248
e 46 249
e 46 251
e 46 252
e 46 254
e 46 255
e 46 256
e 46 257
e 46 258
e 46 261
e 46 262
e 46 264
e 46 265
e 46 266
e 46 267
e 46 268
e 46 269
e 46 270
e 46 272
e 46 273
e 46 275
e 46 276
e 46 277
e 46 279
e 46 280
e 46 282
e 46 283
e 46 285
e 46 286
e 46 287
e 46 289
e 46 291
e 46 292
e 46 293
e 46 294
e 46 295
e 46 296
e 46 297
e 46 298
e 46 305
e 46 307
e 46 308
e 46 309
e 46 310
e 46 312
e 46 317
e 46 318
e 46 320
e 46 321
e 46 322
e 46 325
e 46 329
e 46 330
e 46 333
e 46 334
e 46 335
e 46 336
e 46 337
e 46 338
e 46 339
e 46 340
e 46 342
e 46 343
e 46 345
e 46 346
e 46 347
e 46 348
e 46 350
e 46 354
e 46 356
e 46 357
e 46 358
e 46 360
e 46 362
e 46 364
e 46 365
e 46 366
e 46 368
e 46 370
e 46 371
e 46 373
e 46 374
e 46 375
e 46 377
e 46 378
e 46 379
e 46 380
e 46 382
e 46 385
e 46 389
e 46 391
e 46 397
e 46 398
e 46 399
e 46 400
e 46 401
e 46 402
e 46 403
e 46 405
e 46 407
e 46 409
e 46 410
e 46 411
e 46 413
e 46 414
e 46 415
e 46 416
e 46 419
e 46 420
e 46 421
e 46 422
e 46 423
e 46 424
e 46 425
e 46 426
e 46 427
e 46 428
e 46 432
e 46 433
e 46 435
e 46 436
e 46 437
e 46 438
e 46 440
e 46 441
e 46 443
e 46 447
e 46 448
e 46 450
e 46 451
e 46 452
e 46 454
e 46 455
e 46 456
e 46 457
e 46 460
e 46 461
e 46 467
e 46 474
e 46 475
e 46 478
e 46 479
e 46 480
e 46 481
e 46 483
e 46 485
e 46 486
e 46 489
e 46 502
e 46 505
e 46 513
e 46 514
e 46 515
e 46 516
e 46 518
e 46 530
e 46 537
e 46 545
e 46 546
e 46 551
e 46 552
e 46 554
e 46 555
e 46 558
e 46 562
e 46 564
e 46 570
e 46 571
e 46 577
e 46 579
e 46 581
e 46 593
e 46 596
e 46 597
e 46 598
e 46 599
e 46 600
e 46 607
e 46 623
e 46 626
e 46 642
e 46 644
e 46 645
e 46 648
e 46 651
e 46 652
e 46 655
e 46 656
e 46 657
e 46 664
e 46 665
e 46 667
e 46 668
e 46 679
e 46 680
e 46 681
e 46 690
e 46 693
e 46 695
e 46 696
e 46 701
e 46 702
e 46 706
e 46 709
e 46 710
e 46 711
e 46 714
e 46 715
e 46 716
e 46 717
e 46 718
e 46 721
e 46 731
e 46 734
e 46 737
e 46 740
e 46 741
e 46 743
e 46 746
e 46 748
e 46 749
e 46 751
e 46 755
e 46 758
e 46 759
e 46 765
e 46 768
e 46 769
e 46 774
e 46 778
e 47 79
e 47 89
e 47 107
e 47 108
e 47 148
e 47 165
e 47 183
e 47 195
e 47 200
e 47 219
e 47 230
e 47 257
e 47 272
e 47 285
e 47 287
e 47 293
e 47 294
e 47 321
e 47 347
e 47 402
e 47 425
e 48 50
e 48 59
e 48 62
e 48 71
e 48 77
e 48 80
e 48 88
e 48 89
e 48 90
e 48 101
e 48 103
e 48 119
e 48 128
e 48 129
e 48 131
e 48 132
e 48 138
e 48 147
e 48 149
e 48 163
e 48 186
e 48 187
e 48 189
e 48 191
e 48 200
e 48 217
e 48 222
e 48 225
e 48 229
e 48 234
e 48 239
e 48 240
e 48 256
e 48 257
e 48 263
e 48 273
e 48 274
e 48 275
e 48 277
e 48 278
e 48 279
e 48 280
e 48 286
e 48 292
e 48 305
e 48 306
e 48 317
e 48 320
e 48 321
e 48 324
e 48 325
e 48 327
e 48 332
e 48 338
e 48 345
e 48 348
e 48 354
e 48 362
e 48 363
e 48 368
e 48 371
e 48 376
e 48 378
e 48 387
e 48 397
e 48 410
e 48 423
e 48 442
e 48 447
e 48 450
e 48 456
e 49 81
e 49 90
e 49 108
e 49 114
e 49 117
e 49 131
e 49 138
e 49 165
e 49 175
e 49 176
e 49 185
e 49 186
e 49 189
e 49 200
e 49 203
e 49 211
e 49 213
e 49 215
e 49 220
e 49 222
e 49 236
e 49 237
e 49 256
e 49 262
e 49 279
e 49 283
e 49 285
e 49 295
e 49 297
e 49 338
e 49 366
e 49 371
e 49 410
e 49 452
e 50 51
e 50 52
e 50 53
e 50 54
e 50 55
e 50 56
e 50 62
e 50 63
e 50 68
e 50 71
e 50 77
e 50 78
e 50 79
e 50 81
e 50 88
e 50 89
e 50 92
e 50 94
e 50 95
e 50 101
e 50 102
e 50 103
e 50 107
e 50 108
e 50 109
e 50 111
e 50 114
e 50 125
e 50 128
e 50 129
e 50 130
e 50 131
e 50 132
e 50 135
e 50 138
e 50 142
e 50 143
e 50 146
e 50 147
e 50 153
e 50 156
e 50 159
e 50 160
e 50 161
e 50 163
e 50 165
e 50 172
e 50 174
e 50 182
e 50 184
e 50 187
e 50 188
e 50 189
e 50 191
e 50 192
e 50 195
e 50 196
e 50 200
e 50 201
e 50 203
e 50 205
e 50 207
e 50 208
e 50 209
e 50 211
e 50 215
e 50 216
e 50 217
e 50 222
e 50 223
e 50 225
e 50 229
e 50 234
e 50 235
e 50 236
e 50 239
e 50 240
e 50 241
e 50 242
e 50 243
e 50 244
e 50 245
e 50 249
e 50 254
e 50 256
e 50 257
e 50 260
e 50 263
e 50 265
e 50 268
e 50 272
e 50 273
e 50 274
e 50 275
e 50 277
e 50 278
e 50 279
e 50 280
e 50 283
e 50 284
e 50 285
e 50 286
e 50 288
e 50 289
e 50 292
e 50 296
e 50 297
e 50 301
e 50 302
e 50 303
e 50 306
e 50 310
e 50 315
e 50 317
e 50 320
e 50 321
e 50 323
e 50 325
e 50 326
e 50 332
e 50 333
e 50 335
e 50 336
e 50 337
e 50 338
e 50 344
e 50 345
e 50 347
e 50 351
e 50 352
e 50 354
e 50 357
e 50 362
e 50 365
e 50 366
e 50 367
e 50 368
e 50 372
e 50 374
e 50 376
e 50 377
e 50 378
e 50 385
e 50 392
e 50 393
e 50 398
e 50 401
e 50 402
e 50 408
e 50 409
e 50 413
e 50 420
e 50 422
e 50 423
e 50 426
e 50 427
e 50 433
e 50 435
e 50 437
e 50 438
e 50 440
e 50 442
e 50 443
e 50 446
e 50 449
e 50 451
e 50 452
e 50 454
e 50 455
e 50 456
e 50 774
e 51 52
e 51 62
e 51 79
e 51 114
e 51 129
e 51 147
e 51 153
e 51 163
e 51 187
e 51 196
e 51 201
e 51 208
e 51 216
e 51 217
e 51 225
e 51 229
e 51 239
e 51 241
e 51 254
e 51 257
e 51 263
e 51 273
e 51 275
e 51 292
e 51 301
e 51 303
e 51 315
e 51 325
e 51 337
e 51 344
e 51 345
e 51 351
e 51 352
e 51 376
e 51 393
e 52 62
e 52 79
e 52 114
e 52 129
e 52 147
e 52 153
e 52 163
e 52 187
e 52 196
e 52 201
e 52 208
e 52 216
e 52 217
e 52 225
e 52 229
e 52 239
e 52 241
e 52 254
e 52 257
e 52 263
e 52 273
e 52 275
e 52 292
e 52 301
e 52 303
e 52 315
e 52 325
e 52 337
e 52 344
e 52 345
e 52 351
e 52 352
e 52 376
e 52 393
e 53 54
e 53 55
e 53 56
e 53 59
e 53 62
e 53 63
e 53 68
e 53 69
e 53 75
e 53 78
e 53 79
e 53 80
e 53 81
e 53 89
e 53 92
e 53 94
e 53 101
e 53 107
e 53 108
e 53 109
e 53 114
e 53 115
e 53 125
e 53 126
e 53 131
e 53 132
e 53 138
e 53 141
e 53 142
e 53 156
e 53 160
e 53 161
e 53 172
e 53 173
e 53 174
e 53 179
e 53 187
e 53 189
e 53 190
e 53 196
e 53 199
e 53 201
e 53 203
e 53 205
e 53 207
e 53 208
e 53 209
e 53 211
e 53 212
e 53 215
e 53 216
e 53 218
e 53 220
e 53 222
e 53 226
e 53 232
e 53 234
e 53 236
e 53 238
e 53 240
e 53 241
e 53 244
e 53 245
e 53 246
e 53 251
e 53 254
e 53 255
e 53 257
e 53 260
e 53 261
e 53 265
e 53 266
e 53 267
e 53 272
e 53 273
e 53 275
e 53 277
e 53 279
e 53 280
e 53 283
e 53 286
e 53 288
e 53 289
e 53 291
e 53 292
e 53 298
e 53 305
e 53 307
e 53 308
e 53 309
e 53 310
e 53 312
e 53 317
e 53 320
e 53 321
e 53 325
e 53 327
e 53 329
e 53 330
e 53 333
e 53 334
e 53 336
e 53 337
e 53 338
e 53 340
e 53 342
e 53 343
e 53 345
e 53 347
e 53 350
e 53 354
e 53 356
e 53 357
e 53 359
e 53 362
e 53 368
e 53 370
e 53 371
e 53 374
e 53 375
e 53 379
e 53 380
e 53 381
e 53 382
e 53 383
e 53 389
e 53 391
e 53 392
e 53 398
e 53 399
e 53 400
e 53 402
e 53 403
e 53 405
e 53 407
e 53 409
e 53 411
e 53 413
e 53 414
e 53 416
e 53 420
e 53 421
e 53 422
e 53 423
e 53 424
e 53 426
e 53 427
e 53 428
e 53 431
e 53 432
e 53 433
e 53 434
e 53 435
e 53 436
e 53 437
e 53 438
e 53 440
e 53 441
e 53 442
e 53 443
e 53 446
e 53 447
e 53 449
e 53 453
e 53 455
e 53 460
e 53 461
e 53 470
e 53 475
e 53 476
e 53 478
e 53 479
e 53 480
e 53 484
e 53 486
e 53 489
e 53 490
e 53 491
e 53 492
e 53 498
e 53 500
e 53 502
e 53 505
e 53 513
e 53 514
e 53 515
e 53 516
e 53 518
e 53 519
e 53 521
e 53 529
e 53 530
e 53 537
e 53 545
e 53 546
e 53 551
e 53 557
e 53 568
e 53 570
e 53 571
e 53 575
e 53 577
e 53 578
e 53 579
e 53 581
e 53 582
e 53 583
e 53 584
e 53 585
e 53 591
e 53 592
e 53 593
e 53 595
e 53 599
e 53 605
e 53 606
e 53 607
e 53 609
e 53 610
e 53 614
e 53 618
e 53 619
e 53 621
e 53 623
e 53 626
e 53 633
e 53 636
e 53 640
e 53 646
e 53 648
e 53 650
e 53 651
e 53 659
e 53 660
e 53 661
e 53 662
e 53 663
e 53 666
e 53 668
e 53 669
e 53 675
e 53 678
e 53 679
e 53 681
e 53 682
e 53 684
e 53 685
e 53 688
e 53 690
e 53 695
e 53 696
e 53 698
e 53 700
e 53 703
e 53 707
e 53 709
e 53 710
e 53 712
e 53 714
e 53 717
e 53 718
e 53 720
e 53 722
e 53 723
e 53 725
e 53 731
e 53 732
e 53 734
e 53 735
e 53 738
e 53 739
e 53 741
e 53 743
e 53 746
e 53 748
e 53 749
e 53 754
e 53 755
e 53 758
e 53 759
e 53 760
e 53 761
e 53 763
e 53 764
e 53 770
e 53 771
e 53 772
e 53 773
e 53 774
e 53 776
e 53 777
e 54 55
e 54 56
e 54 62
e 54 68
e 54 89
e 54 101
e 54 107
e 54 108
e 54 109
e 54 142
e 54 156
e 54 172
e 54 189
e 54 209
e 54 211
e 54 236
e 54 244
e 54 245
e 54 275
e 54 283
e 54 317
e 54 320
e 54 374
e 54 392
e 54 402
e 54 420
e 54 426
e 54 437
e 54 442
e 54 449
e 55 56
e 55 58
e 55 59
e 55 62
e 55 63
e 55 68
e 55 69
e 55 71
e 55 78
e 55 79
e 55 80
e 55 81
e 55 87
e 55 88
e 55 89
e 55 90
e 55 94
e 55 95
e 55 101
e 55 102
e 55 103
e 55 107
e 55 108
e 55 109
e 55 111
e 55 114
e 55 115
e 55 117
e 55 125
e 55 126
e 55 128
e 55 130
e 55 131
e 55 132
e 55 139
e 55 142
e 55 153
e 55 156
e 55 160
e 55 161
e 55 163
e 55 164
e 55 165
e 55 166
e 55 169
e 55 170
e 55 172
e 55 174
e 55 175
e 55 178
e 55 179
e 55 181
e 55 182
e 55 186
e 55 187
e 55 188
e 55 189
e 55 192
e 55 196
e 55 200
e 55 201
e 55 203
e 55 207
e 55 208
e 55 209
e 55 211
e 55 213
e 55 216
e 55 217
e 55 219
e 55 220
e 55 222
e 55 225
e 55 231
e 55 233
e 55 236
e 55 237
e 55 240
e 55 241
e 55 243
e 55 244
e 55 245
e 55 249
e 55 251
e 55 254
e 55 256
e 55 257
e 55 260
e 55 263
e 55 265
e 55 272
e 55 273
e 55 275
e 55 279
e 55 280
e 55 281
e 55 283
e 55 285
e 55 286
e 55 289
e 55 293
e 55 295
e 55 297
e 55 305
e 55 308
e 55 309
e 55 310
e 55 314
e 55 315
e 55 316
e 55 317
e 55 318
e 55 320
e 55 321
e 55 323
e 55 325
e 55 326
e 55 333
e 55 335
e 55 337
e 55 338
e 55 340
e 55 345
e 55 347
e 55 349
e 55 351
e 55 356
e 55 357
e 55 362
e 55 365
e 55 366
e 55 368
e 55 369
e 55 370
e 55 372
e 55 374
e 55 375
e 55 376
e 55 377
e 55 378
e 55 379
e 55 380
e 55 382
e 55 383
e 55 386
e 55 388
e 55 391
e 55 392
e 55 399
e 55 401
e 55 402
e 55 405
e 55 406
e 55 407
e 55 408
e 55 409
e 55 413
e 55 415
e 55 416
e 55 418
e 55 420
e 55 423
e 55 425
e 55 426
e 55 427
e 55 428
e 55 429
e 55 430
e 55 433
e 55 434
e 55 435
e 55 437
e 55 438
e 55 439
e 55 440
e 55 441
e 55 442
e 55 444
e 55 445
e 55 447
e 55 449
e 55 451
e 55 454
e 55 455
e 55 774
e 56 62
e 56 68
e 56 89
e 56 101
e 56 107
e 56 108
e 56 109
e 56 142
e 56 156
e 56 172
e 56 189
e 56 209
e 56 211
e 56 236
e 56 244
e 56 245
e 56 275
e 56 283
e 56 317
e 56 320
e 56 374
e 56 392
e 56 402
e 56 420
e 56 426
e 56 437
e 56 442
e 56 449
e 57 59
e 57 79
e 57 89
e 57 101
e 57 107
e 57 108
e 57 148
e 57 164
e 57 180
e 57 195
e 57 196
e 57 200
e 57 201
e 57 219
e 57 230
e 57 254
e 57 257
e 57 272
e 57 280
e 57 285
e 57 287
e 57 293
e 57 294
e 57 305
e 57 321
e 57 322
e 57 333
e 57 347
e 57 382
e 57 402
e 57 424
e 57 425
e 57 450
e 58 59
e 58 71
e 58 80
e 58 81
e 58 101
e 58 108
e 58 117
e 58 131
e 58 182
e 58 186
e 58 189
e 58 200
e 58 201
e 58 207
e 58 220
e 58 222
e 58 233
e 58 237
e 58 240
e 58 254
e 58 272
e 58 280
e 58 286
e 58 295
e 58 338
e 58 347
e 58 362
e 58 366
e 58 391
e 58 409
e 58 413
e 58 428
e 59 62
e 59 63
e 59 65
e 59 67
e 59 69
e 59 70
e 59 71
e 59 77
e 59 78
e 59 79
e 59 80
e 59 81
e 59 83
e 59 85
e 59 86
e 59 87
e 59 89
e 59 90
e 59 92
e 59 94
e 59 95
e 59 97
e 59 99
e 59 101
e 59 103
e 59 105
e 59 106
e 59 107
e 59 108
e 59 111
e 59 114
e 59 116
e 59 117
e 59 118
e 59 119
e 59 121
e 59 122
e 59 123
e 59 124
e 59 125
e 59 126
e 59 128
e 59 130
e 59 131
e 59 132
e 59 134
e 59 138
e 59 139
e 59 140
e 59 141
e 59 142
e 59 146
e 59 148
e 59 149
e 59 151
e 59 152
e 59 153
e 59 154
e 59 156
e 59 159
e 59 160
e 59 161
e 59 163
e 59 164
e 59 165
e 59 174
e 59 177
e 59 178
e 59 179
e 59 180
e 59 181
e 59 182
e 59 186
e 59 187
e 59 189
e 59 193
e 59 194
e 59 195
e 59 196
e 59 197
e 59 198
e 59 199
e 59 200
e 59 201
e 59 203
e 59 204
e 59 205
e 59 207
e 59 208
e 59 209
e 59 212
e 59 213
e 59 215
e 59 216
e 59 217
e 59 218
e 59 219
e 59 220
e 59 222
e 59 223
e 59 224
e 59 227
e 59 228
e 59 229
e 59 230
e 59 231
e 59 233
e 59 234
e 59 235
e 59 236
e 59 237
e 59 240
e 59 241
e 59 242
e 59 243
e 59 244
e 59 245
e 59 246
e 59 249
e 59 251
e 59 253
e 59 254
e 59 255
e 59 257
e 59 258
e 59 260
e 59 264
e 59 265
e 59 266
e 59 267
e 59 268
e 59 269
e 59 270
e 59 271
e 59 272
e 59 273
e 59 274
e 59 276
e 59 277
e 59 279
e 59 280
e 59 281
e 59 283
e 59 284
e 59 285
e 59 286
e 59 287
e 59 289
e 59 291
e 59 292
e 59 293
e 59 294
e 59 295
e 59 296
e 59 298
e 59 299
e 59 300
e 59 301
e 59 303
e 59 304
e 59 305
e 59 306
e 59 307
e 59 308
e 59 309
e 59 310
e 59 312
e 59 313
e 59 314
e 59 316
e 59 317
e 59 318
e 59 319
e 59 320
e 59 321
e 59 322
e 59 323
e 59 324
e 59 325
e 59 326
e 59 327
e 59 328
e 59 329
e 59 331
e 59 332
e 59 333
e 59 335
e 59 336
e 59 337
e 59 338
e 59 340
e 59 341
e 59 342
e 59 343
e 59 345
e 59 346
e 59 347
e 59 348
e 59 349
e 59 350
e 59 352
e 59 353
e 59 354
e 59 355
e 59 356
e 59 357
e 59 359
e 59 360
e 59 361
e 59 362
e 59 363
e 59 364
e 59 366
e 59 367
e 59 368
e 59 369
e 59 370
e 59 371
e 59 372
e 59 373
e 59 374
e 59 375
e 59 376
e 59 377
e 59 378
e 59 379
e 59 380
e 59 381
e 59 382
e 59 383
e 59 384
e 59 385
e 59 386
e 59 387
e 59 388
e 59 390
e 59 391
e 59 393
e 59 397
e 59 399
e 59 401
e 59 402
e 59 403
e 59 404
e 59 405
e 59 406
e 59 408
e 59 409
e 59 410
e 59 412
e 59 413
e 59 414
e 59 415
e 59 416
e 59 417
e 59 419
e 59 420
e 59 422
e 59 423
e 59 424
e 59 425
e 59 426
e 59 427
e 59 428
e 59 432
e 59 433
e 59 434
e 59 435
e 59 436
e 59 437
e 59 439
e 59 440
e 59 441
e 59 442
e 59 443
e 59 444
e 59 445
e 59 446
e 59 447
e 59 450
e 59 451
e 59 452
e 59 453
e 59 454
e 59 455
e 59 456
e 59 457
e 59 460
e 59 467
e 59 468
e 59 470
e 59 476
e 59 477
e 59 479
e 59 480
e 59 486
e 59 491
e 59 496
e 59 498
e 59 505
e 59 513
e 59 514
e 59 515
e 59 516
e 59 530
e 59 535
e 59 537
e 59 541
e 59 542
e 59 546
e 59 551
e 59 552
e 59 563
e 59 568
e 59 570
e 59 571
e 59 572
e 59 574
e 59 577
e 59 578
e 59 580
e 59 581
e 59 590
e 59 599
e 59 603
e 59 607
e 59 618
e 59 622
e 59 623
e 59 626
e 59 628
e 59 630
e 59 631
e 59 633
e 59 634
e 59 637
e 59 638
e 59 640
e 59 647
e 59 648
e 59 650
e 59 651
e 59 659
e 59 662
e 59 671
e 59 673
e 59 676
e 59 677
e 59 681
e 59 682
e 59 684
e 59 686
e 59 691
e 59 696
e 59 698
e 59 701
e 59 712
e 59 713
e 59 714
e 59 717
e 59 718
e 59 723
e 59 724
e 59 731
e 59 734
e 59 735
e 59 741
e 59 743
e 59 745
e 59 747
e 59 749
e 59 750
e 59 753
e 59 754
e 59 756
e 59 757
e 59 758
e 59 760
e 59 761
e 59 763
e 59 764
e 59 766
e 59 767
e 59 769
e 59 773
e 59 774
e 59 777
e 59 778
e 60 61
e 60 62
e 60 63
e 60 64
e 60 77
e 60 79
e 60 80
e 60 86
e 60 89
e 60 108
e 60 130
e 60 133
e 60 138
e 60 139
e 60 155
e 60 156
e 60 189
e 60 195
e 60 198
e 60 208
e 60 222
e 60 228
e 60 242
e 60 245
e 60 272
e 60 299
e 60 300
e 60 301
e 60 313
e 60 319
e 60 320
e 60 321
e 60 325
e 60 354
e 60 355
e 60 373
e 60 375
e 60 379
e 60 381
e 60 404
e 60 412
e 60 417
e 61 62
e 61 63
e 61 64
e 61 77
e 61 79
e 61 80
e 61 86
e 61 89
e 61 108
e 61 130
e 61 133
e 61 138
e 61 139
e 61 155
e 61 156
e 61 189
e 61 195
e 61 198
e 61 208
e 61 222
e 61 228
e 61 242
e 61 245
e 61 272
e 61 299
e 61 300
e 61 301
e 61 313
e 61 319
e 61 320
e 61 321
e 61 325
e 61 354
e 61 355
e 61 373
e 61 375
e 61 379
e 61 381
e 61 404
e 61 412
e 61 417
e 62 63
e 62 64
e 62 65
e 62 67
e 62 68
e 62 69
e 62 71
e 62 72
e 62 73
e 62 74
e 62 75
e 62 76
e 62 77
e 62 78
e 62 79
e 62 80
e 62 81
e 62 82
e 62 83
e 62 85
e 62 86
e 62 88
e 62 89
e 62 90
e 62 92
e 62 94
e 62 95
e 62 97
e 62 101
e 62 103
e 62 104
e 62 105
e 62 106
e 62 107
e 62 108
e 62 109
e 62 110
e 62 111
e 62 112
e 62 113
e 62 114
e 62 117
e 62 119
e 62 122
e 62 123
e 62 124
e 62 125
e 62 126
e 62 128
e 62 129
e 62 130
e 62 131
e 62 132
e 62 133
e 62 135
e 62 136
e 62 138
e 62 139
e 62 140
e 62 141
e 62 142
e 62 143
e 62 144
e 62 146
e 62 147
e 62 151
e 62 152
e 62 153
e 62 155
e 62 156
e 62 157
e 62 159
e 62 160
e 62 161
e 62 163
e 62 164
e 62 165
e 62 166
e 62 169
e 62 170
e 62 172
e 62 173
e 62 174
e 62 175
e 62 176
e 62 177
e 62 178
e 62 179
e 62 180
e 62 181
e 62 182
e 62 184
e 62 186
e 62 187
e 62 188
e 62 189
e 62 190
e 62 191
e 62 192
e 62 194
e 62 195
e 62 196
e 62 197
e 62 198
e 62 199
e 62 200
e 62 201
e 62 202
e 62 203
e 62 204
e 62 205
e 62 207
e 62 208
e 62 209
e 62 210
e 62 211
e 62 212
e 62 213
e 62 215
e 62 216
e 62 217
e 62 218
e 62 219
e 62 222
e 62 223
e 62 224
e 62 225
e 62 226
e 62 227
e 62 228
e 62 229
e 62 231
e 62 232
e 62 233
e 62 234
e 62 235
e 62 236
e 62 238
e 62 239
e 62 240
e 62 241
e 62 242
e 62 243
e 62 244
e 62 245
e 62 246
e 62 247
e 62 248
e 62 249
e 62 250
e 62 251
e 62 253
e 62 254
e 62 255
e 62 256
e 62 257
e 62 258
e 62 259
e 62 260
e 62 261
e 62 263
e 62 264
e 62 265
e 62 266
e 62 267
e 62 268
e 62 269
e 62 270
e 62 271
e 62 272
e 62 273
e 62 274
e 62 275
e 62 276
e 62 277
e 62 278
e 62 279
e 62 280
e 62 281
e 62 283
e 62 284
e 62 285
e 62 286
e 62 287
e 62 289
e 62 290
e 62 291
e 62 292
e 62 293
e 62 294
e 62 295
e 62 296
e 62 297
e 62 298
e 62 299
e 62 300
e 62 301
e 62 302
e 62 303
e 62 304
e 62 305
e 62 306
e 62 307
e 62 308
e 62 309
e 62 310
e 62 311
e 62 312
e 62 313
e 62 314
e 62 315
e 62 316
e 62 317
e 62 318
e 62 319
e 62 320
e 62 321
e 62 322
e 62 323
e 62 325
e 62 326
e 62 327
e 62 328
e 62 329
e 62 332
e 62 333
e 62 334
e 62 335
e 62 336
e 62 337
e 62 338
e 62 340
e 62 341
e 62 342
e 62 343
e 62 344
e 62 345
e 62 346
e 62 347
e 62 348
e 62 349
e 62 350
e 62 351
e 62 352
e 62 353
e 62 354
e 62 355
e 62 356
e 62 357
e 62 358
e 62 360
e 62 361
e 62 362
e 62 363
e 62 364
e 62 365
e 62 366
e 62 367
e 62 368
e 62 369
e 62 371
e 62 372
e 62 373
e 62 374
e 62 375
e 62 376
e 62 377
e 62 378
e 62 379
e 62 380
e 62 381
e 62 382
e 62 383
e 62 384
e 62 385
e 62 388
e 62 389
e 62 390
e 62 391
e 62 392
e 62 393
e 62 394
e 62 395
e 62 396
e 62 397
e 62 398
e 62 399
e 62 400
e 62 401
e 62 402
e 62 403
e 62 404
e 62 405
e 62 406
e 62 407
e 62 408
e 62 409
e 62 410
e 62 411
e 62 412
e 62 413
e 62 414
e 62 415
e 62 416
e 62 417
e 62 418
e 62 419
e 62 420
e 62 421
e 62 422
e 62 423
e 62 424
e 62 425
e 62 426
e 62 427
e 62 428
e 62 429
e 62 430
e 62 431
e 62 432
e 62 433
e 62 434
e 62 435
e 62 436
e 62 437
e 62 438
e 62 439
e 62 440
e 62 441
e 62 442
e 62 443
e 62 444
e 62 445
e 62 446
e 62 447
e 62 448
e 62 449
e 62 450
e 62 451
e 62 452
e 62 453
e 62 454
e 62 455
e 62 456
e 62 457
e 62 460
e 62 461
e 62 462
e 62 464
e 62 465
e 62 466
e 62 467
e 62 468
e 62 469
e 62 470
e 62 471
e 62 473
e 62 474
e 62 475
e 62 476
e 62 477
e 62 478
e 62 479
e 62 480
e 62 481
e 62 483
e 62 484
e 62 485
e 62 486
e 62 489
e 62 491
e 62 493
e 62 494
e 62 495
e 62 496
e 62 497
e 62 498
e 62 499
e 62 502
e 62 503
e 62 504
e 62 505
e 62 506
e 62 508
e 62 509
e 62 510
e 62 511
e 62 512
e 62 513
e 62 514
e 62 515
e 62 516
e 62 517
e 62 518
e 62 519
e 62 528
e 62 529
e 62 530
e 62 531
e 62 532
e 62 533
e 62 534
e 62 537
e 62 539
e 62 540
e 62 541
e 62 542
e 62 544
e 62 545
e 62 546
e 62 547
e 62 549
e 62 551
e 62 552
e 62 553
e 62 554
e 62 555
e 62 556
e 62 558
e 62 559
e 62 562
e 62 563
e 62 565
e 62 566
e 62 568
e 62 570
e 62 571
e 62 572
e 62 574
e 62 575
e 62 577
e 62 578
e 62 579
e 62 580
e 62 581
e 62 583
e 62 584
e 62 585
e 62 587
e 62 588
e 62 589
e 62 590
e 62 592
e 62 593
e 62 594
e 62 595
e 62 596
e 62 597
e 62 598
e 62 599
e 62 600
e 62 603
e 62 604
e 62 606
e 62 607
e 62 609
e 62 611
e 62 612
e 62 613
e 62 615
e 62 616
e 62 617
e 62 618
e 62 619
e 62 620
e 62 621
e 62 622
e 62 623
e 62 624
e 62 625
e 62 626
e 62 627
e 62 628
e 62 629
e 62 630
e 62 631
e 62 632
e 62 633
e 62 634
e 62 635
e 62 637
e 62 639
e 62 640
e 62 641
e 62 642
e 62 643
e 62 644
e 62 645
e 62 646
e 62 647
e 62 648
e 62 649
e 62 650
e 62 651
e 62 652
e 62 654
e 62 655
e 62 656
e 62 657
e 62 658
e 62 659
e 62 660
e 62 661
e 62 662
e 62 663
e 62 664
e 62 665
e 62 666
e 62 667
e 62 668
e 62 669
e 62 670
e 62 671
e 62 673
e 62 674
e 62 675
e 62 676
e 62 677
e 62 678
e 62 679
e 62 680
e 62 681
e 62 682
e 62 684
e 62 686
e 62 689
e 62 690
e 62 691
e 62 692
e 62 693
e 62 694
e 62 695
e 62 696
e 62 697
e 62 698
e 62 699
e 62 700
e 62 701
e 62 702
e 62 703
e 62 705
e 62 706
e 62 707
e 62 708
e 62 709
e 62 710
e 62 711
e 62 712
e 62 713
e 62 714
e 62 715
e 62 716
e 62 717
e 62 718
e 62 719
e 62 720
e 62 723
e 62 724
e 62 725
e 62 726
e 62 727
e 62 728
e 62 729
e 62 730
e 62 731
e 62 732
e 62 733
e 62 734
e 62 735
e 62 736
e 62 737
e 62 738
e 62 739
e 62 740
e 62 741
e 62 742
e 62 743
e 62 744
e 62 745
e 62 746
e 62 747
e 62 748
e 62 749
e 62 750
e 62 751
e 62 752
e 62 753
e 62 754
e 62 755
e 62 756
e 62 757
e 62 758
e 62 759
e 62 760
e 62 761
e 62 762
e 62 763
e 62 764
e 62 765
e 62 766
e 62 767
e 62 768
e 62 769
e 62 770
e 62 771
e 62 772
e 62 773
e 62 774
e 62 775
e 62 776
e 62 777
e 63 64
e 63 65
e 63 69
e 63 71
e 63 77
e 63 78
e 63 79
e 63 80
e 63 81
e 63 85
e 63 89
e 63 90
e 63 91
e 63 92
e 63 94
e 63 95
e 63 97
e 63 99
e 63 101
e 63 103
e 63 107
e 63 108
e 63 111
e 63 114
e 63 116
e 63 117
e 63 118
e 63 120
e 63 122
e 63 123
e 63 125
e 63 126
e 63 130
e 63 131
e 63 132
e 63 136
e 63 138
e 63 139
e 63 142
e 63 153
e 63 155
e 63 156
e 63 160
e 63 161
e 63 163
e 63 165
e 63 174
e 63 175
e 63 179
e 63 181
e 63 188
e 63 189
e 63 192
e 63 195
e 63 198
e 63 200
e 63 201
e 63 203
e 63 205
e 63 207
e 63 208
e 63 209
e 63 210
e 63 213
e 63 216
e 63 217
e 63 218
e 63 219
e 63 220
e 63 222
e 63 223
e 63 228
e 63 231
e 63 232
e 63 234
e 63 236
e 63 240
e 63 241
e 63 242
e 63 243
e 63 244
e 63 245
e 63 247
e 63 248
e 63 249
e 63 250
e 63 251
e 63 254
e 63 257
e 63 259
e 63 260
e 63 264
e 63 265
e 63 266
e 63 267
e 63 268
e 63 270
e 63 272
e 63 273
e 63 276
e 63 277
e 63 279
e 63 280
e 63 281
e 63 282
e 63 283
e 63 285
e 63 286
e 63 288
e 63 289
e 63 292
e 63 293
e 63 298
e 63 299
e 63 300
e 63 303
e 63 305
e 63 307
e 63 308
e 63 309
e 63 310
e 63 311
e 63 313
e 63 314
e 63 316
e 63 318
e 63 319
e 63 320
e 63 321
e 63 323
e 63 325
e 63 327
e 63 328
e 63 329
e 63 330
e 63 333
e 63 334
e 63 335
e 63 337
e 63 338
e 63 339
e 63 340
e 63 342
e 63 345
e 63 347
e 63 349
e 63 350
e 63 351
e 63 352
e 63 355
e 63 356
e 63 357
e 63 359
e 63 362
e 63 363
e 63 365
e 63 368
e 63 369
e 63 370
e 63 372
e 63 373
e 63 374
e 63 375
e 63 376
e 63 377
e 63 378
e 63 379
e 63 380
e 63 381
e 63 382
e 63 383
e 63 384
e 63 388
e 63 398
e 63 399
e 63 401
e 63 402
e 63 403
e 63 404
e 63 405
e 63 406
e 63 407
e 63 408
e 63 412
e 63 413
e 63 414
e 63 416
e 63 417
e 63 418
e 63 422
e 63 423
e 63 424
e 63 426
e 63 427
e 63 433
e 63 434
e 63 435
e 63 436
e 63 437
e 63 438
e 63 439
e 63 440
e 63 441
e 63 442
e 63 443
e 63 444
e 63 445
e 63 446
e 63 447
e 63 449
e 63 450
e 63 451
e 63 454
e 63 455
e 63 774
e 64 77
e 64 79
e 64 80
e 64 86
e 64 89
e 64 108
e 64 130
e 64 133
e 64 138
e 64 139
e 64 155
e 64 156
e 64 189
e 64 195
e 64 198
e 64 208
e 64 222
e 64 228
e 64 242
e 64 245
e 64 272
e 64 299
e 64 300
e 64 301
e 64 313
e 64 319
e 64 320
e 64 321
e 64 325
e 64 354
e 64 355
e 64 373
e 64 375
e 64 379
e 64 381
e 64 404
e 64 412
e 64 417
e 65 71
e 65 77
e 65 81
e 65 85
e 65 89
e 65 107
e 65 108
e 65 131
e 65 132
e 65 133
e 65 142
e 65 163
e 65 177
e 65 195
e 65 198
e 65 203
e 65 208
e 65 240
e 65 242
e 65 249
e 65 277
e 65 280
e 65 285
e 65 320
e 65 327
e 65 329
e 65 335
e 65 338
e 65 342
e 65 347
e 65 355
e 65 362
e 65 363
e 65 364
e 65 373
e 65 380
e 65 382
e 65 384
e 65 412
e 65 419
e 65 435
e 65 437
e 65 439
e 65 446
e 66 68
e 66 134
e 66 194
e 66 214
e 66 240
e 66 286
e 66 347
e 66 366
e 66 417
e 66 428
e 67 71
e 67 81
e 67 83
e 67 89
e 67 128
e 67 131
e 67 161
e 67 186
e 67 200
e 67 201
e 67 203
e 67 209
e 67 215
e 67 222
e 67 234
e 67 271
e 67 272
e 67 277
e 67 295
e 67 338
e 67 354
e 67 366
e 67 385
e 67 390
e 67 391
e 67 408
e 67 409
e 67 423
e 68 79
e 68 88
e 68 89
e 68 94
e 68 101
e 68 102
e 68 103
e 68 107
e 68 108
e 68 109
e 68 125
e 68 134
e 68 142
e 68 156
e 68 160
e 68 172
e 68 174
e 68 187
e 68 188
e 68 189
e 68 192
e 68 194
e 68 209
e 68 211
e 68 214
e 68 216
e 68 222
e 68 236
e 68 240
e 68 244
e 68 245
e 68 254
e 68 256
e 68 275
e 68 279
e 68 280
e 68 283
e 68 286
e 68 289
e 68 297
e 68 300
e 68 317
e 68 320
e 68 325
e 68 338
e 68 347
e 68 357
e 68 366
e 68 374
e 68 392
e 68 402
e 68 417
e 68 420
e 68 423
e 68 426
e 68 427
e 68 428
e 68 437
e 68 438
e 68 442
e 68 449
e 68 451
e 68 477
e 68 480
e 68 507
e 68 548
e 68 550
e 68 570
e 68 592
e 68 605
e 68 621
e 68 651
e 68 684
e 68 696
e 68 699
e 68 746
e 68 774
e 69 70
e 69 71
e 69 75
e 69 79
e 69 81
e 69 89
e 69 92
e 69 94
e 69 101
e 69 107
e 69 108
e 69 114
e 69 126
e 69 130
e 69 131
e 69 132
e 69 139
e 69 141
e 69 142
e 69 146
e 69 153
e 69 154
e 69 156
e 69 159
e 69 160
e 69 161
e 69 163
e 69 165
e 69 171
e 69 174
e 69 179
e 69 181
e 69 187
e 69 189
e 69 190
e 69 196
e 69 198
e 69 199
e 69 200
e 69 201
e 69 203
e 69 205
e 69 207
e 69 208
e 69 209
e 69 213
e 69 215
e 69 216
e 69 217
e 69 218
e 69 220
e 69 222
e 69 226
e 69 228
e 69 232
e 69 236
e 69 240
e 69 241
e 69 243
e 69 249
e 69 251
e 69 253
e 69 254
e 69 257
e 69 261
e 69 265
e 69 267
e 69 273
e 69 277
e 69 279
e 69 280
e 69 282
e 69 284
e 69 286
e 69 288
e 69 289
e 69 291
e 69 297
e 69 298
e 69 299
e 69 300
e 69 304
e 69 305
e 69 307
e 69 310
e 69 312
e 69 318
e 69 319
e 69 320
e 69 321
e 69 325
e 69 326
e 69 329
e 69 330
e 69 333
e 69 334
e 69 335
e 69 337
e 69 338
e 69 342
e 69 345
e 69 347
e 69 349
e 69 350
e 69 354
e 69 356
e 69 357
e 69 359
e 69 362
e 69 364
e 69 368
e 69 371
e 69 373
e 69 377
e 69 378
e 69 381
e 69 382
e 69 383
e 69 386
e 69 389
e 69 398
e 69 399
e 69 400
e 69 401
e 69 402
e 69 403
e 69 404
e 69 405
e 69 406
e 69 407
e 69 410
e 69 411
e 69 414
e 69 421
e 69 422
e 69 423
e 69 426
e 69 427
e 69 428
e 69 432
e 69 433
e 69 435
e 69 436
e 69 437
e 69 438
e 69 439
e 69 441
e 69 443
e 69 445
e 69 446
e 69 447
e 69 449
e 69 450
e 69 451
e 69 455
e 69 457
e 69 460
e 69 461
e 69 467
e 69 473
e 69 475
e 69 478
e 69 479
e 69 480
e 69 481
e 69 484
e 69 485
e 69 486
e 69 489
e 69 491
e 69 502
e 69 505
e 69 509
e 69 510
e 69 511
e 69 512
e 69 513
e 69 514
e 69 515
e 69 516
e 69 518
e 69 521
e 69 530
e 69 537
e 69 545
e 69 546
e 69 551
e 69 554
e 69 555
e 69 562
e 69 563
e 69 568
e 69 570
e 69 571
e 69 577
e 69 578
e 69 579
e 69 580
e 69 581
e 69 585
e 69 593
e 69 597
e 69 598
e 69 599
e 69 600
e 69 602
e 69 607
e 69 610
e 69 615
e 69 616
e 69 617
e 69 618
e 69 619
e 69 621
e 69 623
e 69 626
e 69 632
e 69 640
e 69 643
e 69 644
e 69 648
e 69 651
e 69 655
e 69 657
e 69 662
e 69 663
e 69 667
e 69 678
e 69 679
e 69 681
e 69 682
e 69 684
e 69 690
e 69 693
e 69 696
e 69 697
e 69 702
e 69 704
e 69 705
e 69 707
e 69 709
e 69 710
e 69 711
e 69 714
e 69 715
e 69 716
e 69 717
e 69 718
e 69 719
e 69 720
e 69 721
e 69 730
e 69 731
e 69 733
e 69 734
e 69 737
e 69 739
e 69 740
e 69 741
e 69 744
e 69 748
e 69 751
e 69 753
e 69 754
e 69 755
e 69 756
e 69 759
e 69 761
e 69 762
e 69 765
e 69 766
e 69 768
e 69 769
e 69 770
e 69 772
e 69 773
e 69 775
e 69 776
e 69 777
e 69 778
e 70 94
e 70 130
e 70 131
e 70 139
e 70 146
e 70 154
e 70 156
e 70 159
e 70 165
e 70 179
e 70 198
e 70 200
e 70 205
e 70 228
e 70 240
e 70 253
e 70 267
e 70 280
e 70 284
e 70 291
e 70 298
e 70 299
e 70 300
e 70 319
e 70 335
e 70 349
e 70 368
e 70 399
e 70 404
e 70 451
e 71 72
e 71 73
e 71 74
e 71 75
e 71 76
e 71 77
e 71 78
e 71 79
e 71 80
e 71 81
e 71 83
e 71 85
e 71 87
e 71 88
e 71 89
e 71 90
e 71 92
e 71 94
e 71 95
e 71 97
e 71 101
e 71 103
e 71 104
e 71 108
e 71 111
e 71 114
e 71 117
e 71 119
e 71 125
e 71 126
e 71 128
e 71 130
e 71 131
e 71 132
e 71 133
e 71 138
e 71 141
e 71 142
e 71 149
e 71 152
e 71 153
e 71 156
e 71 157
e 71 160
e 71 161
e 71 163
e 71 164
e 71 165
e 71 174
e 71 175
e 71 176
e 71 178
e 71 179
e 71 181
e 71 182
e 71 186
e 71 187
e 71 188
e 71 189
e 71 195
e 71 196
e 71 198
e 71 200
e 71 201
e 71 203
e 71 207
e 71 208
e 71 209
e 71 211
e 71 213
e 71 215
e 71 217
e 71 220
e 71 222
e 71 223
e 71 231
e 71 233
e 71 234
e 71 235
e 71 236
e 71 237
e 71 240
e 71 242
e 71 243
e 71 244
e 71 245
e 71 246
e 71 249
e 71 254
e 71 255
e 71 256
e 71 260
e 71 265
e 71 267
e 71 268
e 71 271
e 71 272
e 71 275
e 71 276
e 71 277
e 71 279
e 71 280
e 71 283
e 71 285
e 71 286
e 71 289
e 71 293
e 71 295
e 71 296
e 71 297
e 71 298
e 71 304
e 71 305
e 71 309
e 71 310
e 71 316
e 71 317
e 71 319
e 71 320
e 71 321
e 71 323
e 71 325
e 71 326
e 71 327
e 71 329
e 71 331
e 71 333
e 71 335
e 71 338
e 71 341
e 71 342
e 71 346
e 71 347
e 71 348
e 71 350
e 71 353
e 71 354
e 71 355
e 71 357
e 71 359
e 71 360
e 71 361
e 71 362
e 71 363
e 71 364
e 71 365
e 71 366
e 71 368
e 71 369
e 71 370
e 71 371
e 71 373
e 71 375
e 71 376
e 71 377
e 71 378
e 71 379
e 71 380
e 71 381
e 71 382
e 71 383
e 71 384
e 71 385
e 71 388
e 71 390
e 71 391
e 71 397
e 71 398
e 71 401
e 71 402
e 71 405
e 71 406
e 71 408
e 71 409
e 71 410
e 71 412
e 71 413
e 71 415
e 71 417
e 71 418
e 71 419
e 71 423
e 71 428
e 71 433
e 71 434
e 71 435
e 71 436
e 71 437
e 71 438
e 71 440
e 71 442
e 71 446
e 71 447
e 71 450
e 71 451
e 71 454
e 71 456
e 71 774
e 72 73
e 72 74
e 72 75
e 72 76
e 72 77
e 72 80
e 72 101
e 72 108
e 72 131
e 72 161
e 72 164
e 72 174
e 72 175
e 72 176
e 72 187
e 72 200
e 72 201
e 72 209
e 72 211
e 72 233
e 72 236
e 72 240
e 72 256
e 72 283
e 72 296
e 72 297
e 72 298
e 72 310
e 72 338
e 72 347
e 72 405
e 72 409
e 72 423
e 73 74
e 73 75
e 73 76
e 73 77
e 73 80
e 73 101
e 73 108
e 73 131
e 73 161
e 73 164
e 73 174
e 73 175
e 73 176
e 73 187
e 73 200
e 73 201
e 73 209
e 73 211
e 73 233
e 73 236
e 73 240
e 73 256
e 73 283
e 73 296
e 73 297
e 73 298
e 73 310
e 73 338
e 73 347
e 73 405
e 73 409
e 73 423
e 74 75
e 74 76
e 74 77
e 74 80
e 74 101
e 74 108
e 74 131
e 74 161
e 74 164
e 74 174
e 74 175
e 74 176
e 74 187
e 74 200
e 74 201
e 74 209
e 74 211
e 74 233
e 74 236
e 74 240
e 74 256
e 74 283
e 74 296
e 74 297
e 74 298
e 74 310
e 74 338
e 74 347
e 74 405
e 74 409
e 74 423
e 75 76
e 75 77
e 75 78
e 75 79
e 75 80
e 75 89
e 75 92
e 75 94
e 75 95
e 75 101
e 75 107
e 75 108
e 75 114
e 75 131
e 75 141
e 75 142
e 75 160
e 75 161
e 75 164
e 75 173
e 75 174
e 75 175
e 75 176
e 75 187
e 75 189
e 75 199
e 75 200
e 75 201
e 75 203
e 75 208
e 75 209
e 75 211
e 75 216
e 75 218
e 75 220
e 75 233
e 75 236
e 75 240
e 75 244
e 75 251
e 75 254
e 75 255
e 75 256
e 75 257
e 75 258
e 75 266
e 75 267
e 75 271
e 75 273
e 75 279
e 75 280
e 75 283
e 75 286
e 75 296
e 75 297
e 75 298
e 75 307
e 75 310
e 75 312
e 75 329
e 75 337
e 75 338
e 75 345
e 75 347
e 75 350
e 75 354
e 75 362
e 75 371
e 75 373
e 75 381
e 75 382
e 75 383
e 75 399
e 75 400
e 75 402
e 75 405
e 75 409
e 75 410
e 75 421
e 75 423
e 75 427
e 75 428
e 75 431
e 75 432
e 75 435
e 75 436
e 75 438
e 75 446
e 75 448
e 75 449
e 75 453
e 75 455
e 75 457
e 75 460
e 75 461
e 75 462
e 75 471
e 75 475
e 75 476
e 75 477
e 75 478
e 75 479
e 75 480
e 75 481
e 75 484
e 75 486
e 75 489
e 75 491
e 75 496
e 75 498
e 75 502
e 75 505
e 75 513
e 75 514
e 75 515
e 75 516
e 75 518
e 75 519
e 75 529
e 75 530
e 75 531
e 75 532
e 75 533
e 75 534
e 75 537
e 75 545
e 75 546
e 75 551
e 75 552
e 75 557
e 75 562
e 75 563
e 75 568
e 75 570
e 75 571
e 75 575
e 75 577
e 75 579
e 75 581
e 75 582
e 75 583
e 75 584
e 75 585
e 75 591
e 75 592
e 75 593
e 75 595
e 75 599
e 75 605
e 75 606
e 75 607
e 75 608
e 75 609
e 75 616
e 75 618
e 75 619
e 75 622
e 75 623
e 75 624
e 75 626
e 75 627
e 75 632
e 75 633
e 75 636
e 75 640
e 75 646
e 75 648
e 75 651
e 75 656
e 75 657
e 75 659
e 75 660
e 75 661
e 75 662
e 75 664
e 75 665
e 75 666
e 75 668
e 75 669
e 75 670
e 75 672
e 75 675
e 75 678
e 75 679
e 75 680
e 75 681
e 75 682
e 75 684
e 75 685
e 75 687
e 75 688
e 75 690
e 75 691
e 75 692
e 75 695
e 75 696
e 75 698
e 75 700
e 75 701
e 75 702
e 75 703
e 75 707
e 75 709
e 75 710
e 75 712
e 75 713
e 75 715
e 75 716
e 75 717
e 75 718
e 75 720
e 75 721
e 75 722
e 75 723
e 75 725
e 75 731
e 75 733
e 75 734
e 75 738
e 75 740
e 75 741
e 75 743
e 75 746
e 75 749
e 75 752
e 75 755
e 75 756
e 75 757
e 75 759
e 75 760
e 75 761
e 75 763
e 75 764
e 75 770
e 75 771
e 75 772
e 75 773
e 75 776
e 75 777
e 75 778
e 76 77
e 76 80
e 76 101
e 76 108
e 76 131
e 76 161
e 76 164
e 76 174
e 76 175
e 76 176
e 76 187
e 76 200
e 76 201
e 76 209
e 76 211
e 76 233
e 76 236
e 76 240
e 76 256
e 76 283
e 76 296
e 76 297
e 76 298
e 76 310
e 76 338
e 76 347
e 76 405
e 76 409
e 76 423
e 77 80
e 77 81
e 77 85
e 77 88
e 77 89
e 77 90
e 77 95
e 77 101
e 77 107
e 77 108
e 77 111
e 77 114
e 77 119
e 77 125
e 77 127
e 77 128
e 77 130
e 77 131
e 77 132
e 77 133
e 77 138
e 77 139
e 77 141
e 77 142
e 77 147
e 77 149
e 77 152
e 77 155
e 77 156
e 77 157
e 77 159
e 77 161
e 77 163
e 77 164
e 77 165
e 77 174
e 77 175
e 77 176
e 77 178
e 77 179
e 77 184
e 77 186
e 77 187
e 77 189
e 77 196
e 77 198
e 77 199
e 77 200
e 77 201
e 77 202
e 77 203
e 77 205
e 77 208
e 77 209
e 77 211
e 77 213
e 77 215
e 77 217
e 77 222
e 77 223
e 77 228
e 77 231
e 77 233
e 77 234
e 77 235
e 77 236
e 77 240
e 77 242
e 77 243
e 77 244
e 77 245
e 77 246
e 77 248
e 77 249
e 77 251
e 77 252
e 77 254
e 77 255
e 77 256
e 77 267
e 77 271
e 77 272
e 77 275
e 77 277
e 77 279
e 77 280
e 77 283
e 77 285
e 77 286
e 77 289
e 77 290
e 77 293
e 77 296
e 77 297
e 77 298
e 77 299
e 77 300
e 77 304
e 77 305
e 77 310
e 77 316
e 77 317
e 77 319
e 77 320
e 77 321
e 77 323
e 77 325
e 77 326
e 77 327
e 77 329
e 77 333
e 77 335
e 77 337
e 77 338
e 77 342
e 77 343
e 77 346
e 77 347
e 77 348
e 77 350
e 77 354
e 77 355
e 77 357
e 77 359
e 77 360
e 77 362
e 77 363
e 77 366
e 77 368
e 77 371
e 77 372
e 77 373
e 77 375
e 77 376
e 77 377
e 77 378
e 77 379
e 77 380
e 77 381
e 77 382
e 77 385
e 77 389
e 77 391
e 77 397
e 77 401
e 77 402
e 77 404
e 77 405
e 77 408
e 77 409
e 77 410
e 77 412
e 77 415
e 77 417
e 77 418
e 77 419
e 77 420
e 77 422
e 77 423
e 77 428
e 77 435
e 77 436
e 77 438
e 77 442
e 77 446
e 77 447
e 77 448
e 77 450
e 77 452
e 77 454
e 77 455
e 77 456
e 78 79
e 78 80
e 78 89
e 78 92
e 78 94
e 78 95
e 78 97
e 78 101
e 78 103
e 78 107
e 78 108
e 78 111
e 78 114
e 78 117
e 78 120
e 78 124
e 78 125
e 78 130
e 78 131
e 78 132
e 78 135
e 78 138
e 78 139
e 78 142
e 78 146
e 78 152
e 78 153
e 78 154
e 78 155
e 78 159
e 78 160
e 78 161
e 78 163
e 78 165
e 78 177
e 78 179
e 78 187
e 78 188
e 78 189
e 78 191
e 78 195
e 78 196
e 78 200
e 78 201
e 78 203
e 78 205
e 78 206
e 78 207
e 78 208
e 78 209
e 78 213
e 78 216
e 78 217
e 78 218
e 78 220
e 78 222
e 78 223
e 78 224
e 78 225
e 78 228
e 78 231
e 78 232
e 78 234
e 78 236
e 78 240
e 78 241
e 78 242
e 78 243
e 78 244
e 78 245
e 78 246
e 78 249
e 78 251
e 78 254
e 78 256
e 78 257
e 78 260
e 78 265
e 78 266
e 78 267
e 78 268
e 78 269
e 78 271
e 78 272
e 78 273
e 78 274
e 78 275
e 78 276
e 78 277
e 78 278
e 78 279
e 78 280
e 78 282
e 78 283
e 78 284
e 78 286
e 78 289
e 78 291
e 78 292
e 78 298
e 78 299
e 78 300
e 78 301
e 78 304
e 78 305
e 78 307
e 78 308
e 78 309
e 78 310
e 78 316
e 78 317
e 78 319
e 78 320
e 78 321
e 78 325
e 78 326
e 78 327
e 78 329
e 78 330
e 78 333
e 78 335
e 78 336
e 78 337
e 78 338
e 78 339
e 78 340
e 78 342
e 78 344
e 78 345
e 78 347
e 78 349
e 78 350
e 78 354
e 78 356
e 78 359
e 78 360
e 78 361
e 78 362
e 78 363
e 78 365
e 78 367
e 78 368
e 78 370
e 78 374
e 78 376
e 78 377
e 78 378
e 78 380
e 78 381
e 78 382
e 78 383
e 78 387
e 78 390
e 78 393
e 78 394
e 78 395
e 78 396
e 78 399
e 78 402
e 78 403
e 78 404
e 78 405
e 78 406
e 78 407
e 78 408
e 78 409
e 78 412
e 78 413
e 78 416
e 78 417
e 78 419
e 78 420
e 78 422
e 78 423
e 78 424
e 78 427
e 78 429
e 78 430
e 78 433
e 78 434
e 78 435
e 78 437
e 78 438
e 78 442
e 78 443
e 78 444
e 78 445
e 78 446
e 78 447
e 78 448
e 78 450
e 78 452
e 78 454
e 78 455
e 78 456
e 78 461
e 78 469
e 78 475
e 78 477
e 78 478
e 78 486
e 78 489
e 78 496
e 78 500
e 78 502
e 78 514
e 78 515
e 78 516
e 78 530
e 78 537
e 78 545
e 78 568
e 78 571
e 78 581
e 78 593
e 78 595
e 78 599
e 78 609
e 78 614
e 78 624
e 78 626
e 78 633
e 78 647
e 78 651
e 78 658
e 78 659
e 78 661
e 78 668
e 78 677
e 78 679
e 78 680
e 78 681
e 78 682
e 78 684
e 78 692
e 78 695
e 78 696
e 78 712
e 78 713
e 78 731
e 78 734
e 78 736
e 78 741
e 78 743
e 78 749
e 78 756
e 78 763
e 78 774
e 79 80
e 79 81
e 79 82
e 79 86
e 79 88
e 79 89
e 79 90
e 79 92
e 79 94
e 79 95
e 79 97
e 79 98
e 79 99
e 79 101
e 79 102
e 79 103
e 79 107
e 79 108
e 79 109
e 79 110
e 79 111
e 79 112
e 79 113
e 79 114
e 79 116
e 79 117
e 79 118
e 79 120
e 79 125
e 79 126
e 79 128
e 79 129
e 79 130
e 79 131
e 79 132
e 79 133
e 79 134
e 79 138
e 79 139
e 79 142
e 79 143
e 79 145
e 79 147
e 79 148
e 79 151
e 79 152
e 79 153
e 79 155
e 79 156
e 79 159
e 79 160
e 79 161
e 79 163
e 79 164
e 79 165
e 79 166
e 79 169
e 79 170
e 79 172
e 79 174
e 79 175
e 79 178
e 79 179
e 79 180
e 79 181
e 79 182
e 79 183
e 79 186
e 79 187
e 79 188
e 79 189
e 79 192
e 79 193
e 79 195
e 79 196
e 79 197
e 79 199
e 79 200
e 79 201
e 79 203
e 79 205
e 79 208
e 79 209
e 79 211
e 79 213
e 79 214
e 79 215
e 79 216
e 79 217
e 79 218
e 79 219
e 79 220
e 79 222
e 79 223
e 79 224
e 79 225
e 79 226
e 79 227
e 79 229
e 79 230
e 79 231
e 79 234
e 79 236
e 79 237
e 79 239
e 79 240
e 79 241
e 79 242
e 79 243
e 79 244
e 79 245
e 79 246
e 79 249
e 79 251
e 79 253
e 79 254
e 79 255
e 79 256
e 79 257
e 79 258
e 79 260
e 79 262
e 79 263
e 79 264
e 79 265
e 79 267
e 79 269
e 79 270
e 79 272
e 79 273
e 79 275
e 79 276
e 79 277
e 79 278
e 79 279
e 79 280
e 79 281
e 79 282
e 79 283
e 79 284
e 79 285
e 79 286
e 79 287
e 79 288
e 79 289
e 79 291
e 79 292
e 79 293
e 79 294
e 79 297
e 79 298
e 79 299
e 79 300
e 79 301
e 79 302
e 79 303
e 79 304
e 79 305
e 79 306
e 79 307
e 79 310
e 79 312
e 79 313
e 79 314
e 79 315
e 79 317
e 79 318
e 79 319
e 79 320
e 79 321
e 79 322
e 79 323
e 79 324
e 79 325
e 79 326
e 79 327
e 79 329
e 79 330
e 79 331
e 79 332
e 79 333
e 79 335
e 79 336
e 79 337
e 79 338
e 79 339
e 79 340
e 79 341
e 79 342
e 79 344
e 79 345
e 79 346
e 79 347
e 79 349
e 79 350
e 79 351
e 79 352
e 79 354
e 79 356
e 79 357
e 79 362
e 79 363
e 79 364
e 79 365
e 79 366
e 79 367
e 79 368
e 79 369
e 79 371
e 79 372
e 79 373
e 79 374
e 79 375
e 79 376
e 79 377
e 79 378
e 79 379
e 79 381
e 79 382
e 79 383
e 79 385
e 79 387
e 79 388
e 79 390
e 79 391
e 79 392
e 79 393
e 79 400
e 79 401
e 79 402
e 79 403
e 79 404
e 79 405
e 79 406
e 79 407
e 79 408
e 79 409
e 79 413
e 79 414
e 79 415
e 79 416
e 79 417
e 79 418
e 79 420
e 79 422
e 79 423
e 79 424
e 79 425
e 79 427
e 79 428
e 79 429
e 79 430
e 79 432
e 79 434
e 79 435
e 79 436
e 79 437
e 79 438
e 79 439
e 79 440
e 79 441
e 79 442
e 79 443
e 79 444
e 79 445
e 79 446
e 79 447
e 79 449
e 79 450
e 79 451
e 79 452
e 79 454
e 79 455
e 79 456
e 79 457
e 79 458
e 79 459
e 79 460
e 79 461
e 79 462
e 79 467
e 79 475
e 79 477
e 79 479
e 79 480
e 79 481
e 79 484
e 79 487
e 79 491
e 79 496
e 79 498
e 79 501
e 79 502
e 79 505
e 79 513
e 79 515
e 79 516
e 79 523
e 79 524
e 79 526
e 79 530
e 79 537
e 79 539
e 79 541
e 79 542
e 79 545
e 79 546
e 79 551
e 79 556
e 79 562
e 79 563
e 79 568
e 79 577
e 79 581
e 79 582
e 79 583
e 79 584
e 79 587
e 79 588
e 79 590
e 79 593
e 79 599
e 79 602
e 79 603
e 79 604
e 79 607
e 79 608
e 79 612
e 79 614
e 79 615
e 79 616
e 79 617
e 79 618
e 79 619
e 79 620
e 79 621
e 79 623
e 79 628
e 79 629
e 79 630
e 79 631
e 79 634
e 79 635
e 79 636
e 79 639
e 79 640
e 79 641
e 79 642
e 79 643
e 79 644
e 79 645
e 79 647
e 79 648
e 79 651
e 79 653
e 79 654
e 79 662
e 79 670
e 79 672
e 79 673
e 79 674
e 79 680
e 79 681
e 79 682
e 79 684
e 79 686
e 79 687
e 79 688
e 79 690
e 79 691
e 79 692
e 79 693
e 79 696
e 79 704
e 79 705
e 79 707
e 79 708
e 79 710
e 79 713
e 79 715
e 79 716
e 79 718
e 79 724
e 79 731
e 79 732
e 79 733
e 79 734
e 79 736
e 79 738
e 79 740
e 79 741
e 79 742
e 79 744
e 79 745
e 79 748
e 79 749
e 79 750
e 79 751
e 79 753
e 79 754
e 79 755
e 79 761
e 79 762
e 79 765
e 79 769
e 79 770
e 79 774
e 79 775
e 79 776
e 79 777
e 79 778
e 80 81
e 80 83
e 80 85
e 80 86
e 80 87
e 80 89
e 80 90
e 80 91
e 80 92
e 80 93
e 80 94
e 80 95
e 80 96
e 80 97
e 80 99
e 80 100
e 80 101
e 80 103
e 80 107
e 80 108
e 80 111
e 80 114
e 80 115
e 80 117
e 80 120
e 80 122
e 80 123
e 80 125
e 80 128
e 80 130
e 80 131
e 80 133
e 80 138
e 80 139
e 80 142
e 80 145
e 80 149
e 80 152
e 80 155
e 80 156
e 80 161
e 80 163
e 80 164
e 80 174
e 80 175
e 80 176
e 80 177
e 80 178
e 80 179
e 80 182
e 80 183
e 80 185
e 80 186
e 80 187
e 80 189
e 80 192
e 80 193
e 80 195
e 80 196
e 80 198
e 80 200
e 80 201
e 80 203
e 80 207
e 80 208
e 80 209
e 80 210
e 80 211
e 80 213
e 80 214
e 80 215
e 80 217
e 80 218
e 80 220
e 80 222
e 80 224
e 80 228
e 80 230
e 80 231
e 80 233
e 80 234
e 80 235
e 80 236
e 80 237
e 80 240
e 80 241
e 80 242
e 80 245
e 80 246
e 80 249
e 80 254
e 80 256
e 80 257
e 80 258
e 80 260
e 80 262
e 80 264
e 80 265
e 80 266
e 80 267
e 80 270
e 80 271
e 80 272
e 80 273
e 80 275
e 80 276
e 80 277
e 80 278
e 80 279
e 80 280
e 80 282
e 80 283
e 80 284
e 80 285
e 80 286
e 80 287
e 80 295
e 80 296
e 80 297
e 80 298
e 80 299
e 80 300
e 80 301
e 80 305
e 80 306
e 80 307
e 80 308
e 80 309
e 80 310
e 80 311
e 80 313
e 80 317
e 80 319
e 80 320
e 80 321
e 80 322
e 80 324
e 80 325
e 80 327
e 80 328
e 80 329
e 80 330
e 80 331
e 80 332
e 80 335
e 80 336
e 80 337
e 80 338
e 80 339
e 80 340
e 80 341
e 80 342
e 80 344
e 80 346
e 80 347
e 80 348
e 80 349
e 80 350
e 80 354
e 80 355
e 80 356
e 80 357
e 80 362
e 80 363
e 80 364
e 80 365
e 80 366
e 80 368
e 80 369
e 80 370
e 80 371
e 80 373
e 80 374
e 80 375
e 80 376
e 80 377
e 80 378
e 80 379
e 80 380
e 80 381
e 80 382
e 80 385
e 80 387
e 80 390
e 80 391
e 80 393
e 80 397
e 80 401
e 80 402
e 80 403
e 80 404
e 80 405
e 80 406
e 80 407
e 80 408
e 80 409
e 80 410
e 80 412
e 80 413
e 80 415
e 80 416
e 80 417
e 80 423
e 80 424
e 80 425
e 80 427
e 80 428
e 80 435
e 80 437
e 80 438
e 80 441
e 80 442
e 80 444
e 80 446
e 80 447
e 80 452
e 80 454
e 80 456
e 81 83
e 81 85
e 81 87
e 81 89
e 81 90
e 81 92
e 81 95
e 81 96
e 81 98
e 81 99
e 81 100
e 81 101
e 81 107
e 81 108
e 81 114
e 81 115
e 81 117
e 81 125
e 81 128
e 81 130
e 81 131
e 81 132
e 81 133
e 81 138
e 81 142
e 81 143
e 81 147
e 81 152
e 81 153
e 81 156
e 81 157
e 81 160
e 81 161
e 81 163
e 81 164
e 81 165
e 81 174
e 81 175
e 81 176
e 81 179
e 81 181
e 81 182
e 81 183
e 81 184
e 81 185
e 81 186
e 81 189
e 81 196
e 81 198
e 81 199
e 81 200
e 81 201
e 81 202
e 81 203
e 81 207
e 81 208
e 81 209
e 81 211
e 81 213
e 81 215
e 81 217
e 81 220
e 81 222
e 81 223
e 81 224
e 81 231
e 81 233
e 81 234
e 81 235
e 81 236
e 81 237
e 81 240
e 81 241
e 81 242
e 81 243
e 81 244
e 81 245
e 81 249
e 81 254
e 81 256
e 81 257
e 81 258
e 81 262
e 81 265
e 81 267
e 81 271
e 81 272
e 81 273
e 81 277
e 81 279
e 81 280
e 81 283
e 81 285
e 81 286
e 81 288
e 81 289
e 81 290
e 81 293
e 81 295
e 81 296
e 81 297
e 81 302
e 81 304
e 81 305
e 81 306
e 81 308
e 81 309
e 81 310
e 81 316
e 81 317
e 81 320
e 81 321
e 81 323
e 81 325
e 81 326
e 81 327
e 81 329
e 81 330
e 81 331
e 81 335
e 81 337
e 81 338
e 81 340
e 81 342
e 81 343
e 81 346
e 81 347
e 81 354
e 81 355
e 81 356
e 81 357
e 81 362
e 81 363
e 81 364
e 81 365
e 81 366
e 81 367
e 81 368
e 81 370
e 81 371
e 81 372
e 81 373
e 81 375
e 81 376
e 81 377
e 81 378
e 81 379
e 81 380
e 81 382
e 81 383
e 81 385
e 81 390
e 81 391
e 81 401
e 81 402
e 81 405
e 81 406
e 81 408
e 81 409
e 81 410
e 81 412
e 81 413
e 81 415
e 81 416
e 81 417
e 81 418
e 81 419
e 81 420
e 81 422
e 81 423
e 81 425
e 81 428
e 81 434
e 81 435
e 81 436
e 81 437
e 81 438
e 81 440
e 81 441
e 81 442
e 81 444
e 81 445
e 81 446
e 81 448
e 81 449
e 81 450
e 81 451
e 81 452
e 81 454
e 81 455
e 81 456
e 81 774
e 82 89
e 82 101
e 82 117
e 82 128
e 82 130
e 82 156
e 82 165
e 82 180
e 82 197
e 82 208
e 82 213
e 82 216
e 82 219
e 82 227
e 82 245
e 82 249
e 82 254
e 82 256
e 82 257
e 82 272
e 82 283
e 82 285
e 82 287
e 82 289
e 82 293
e 82 294
e 82 318
e 82 321
e 82 322
e 82 346
e 82 413
e 82 415
e 83 89
e 83 101
e 83 108
e 83 117
e 83 128
e 83 131
e 83 161
e 83 186
e 83 200
e 83 201
e 83 203
e 83 207
e 83 209
e 83 215
e 83 220
e 83 222
e 83 234
e 83 235
e 83 236
e 83 237
e 83 240
e 83 271
e 83 272
e 83 277
e 83 280
e 83 285
e 83 286
e 83 295
e 83 296
e 83 331
e 83 338
e 83 347
e 83 354
e 83 362
e 83 364
e 83 366
e 83 385
e 83 390
e 83 391
e 83 408
e 83 409
e 83 423
e 83 428
e 84 139
e 84 174
e 84 205
e 84 257
e 84 314
e 84 352
e 84 376
e 84 444
e 84 445
e 85 86
e 85 89
e 85 108
e 85 111
e 85 131
e 85 132
e 85 142
e 85 163
e 85 177
e 85 189
e 85 193
e 85 198
e 85 203
e 85 208
e 85 217
e 85 220
e 85 222
e 85 228
e 85 240
e 85 242
e 85 249
e 85 265
e 85 272
e 85 277
e 85 280
e 85 285
e 85 301
e 85 313
e 85 320
e 85 325
e 85 327
e 85 329
e 85 335
e 85 338
e 85 342
e 85 347
e 85 354
e 85 355
e 85 362
e 85 363
e 85 364
e 85 373
e 85 380
e 85 382
e 85 412
e 85 417
e 85 437
e 85 446
e 85 454
e 86 89
e 86 111
e 86 130
e 86 133
e 86 138
e 86 139
e 86 155
e 86 156
e 86 163
e 86 177
e 86 189
e 86 193
e 86 195
e 86 208
e 86 217
e 86 220
e 86 222
e 86 228
e 86 245
e 86 249
e 86 265
e 86 272
e 86 280
e 86 285
e 86 299
e 86 300
e 86 301
e 86 313
e 86 320
e 86 321
e 86 325
e 86 327
e 86 335
e 86 338
e 86 342
e 86 354
e 86 362
e 86 363
e 86 364
e 86 379
e 86 381
e 86 404
e 86 417
e 86 437
e 86 454
e 87 89
e 87 101
e 87 108
e 87 114
e 87 117
e 87 131
e 87 164
e 87 186
e 87 200
e 87 201
e 87 207
e 87 213
e 87 220
e 87 222
e 87 233
e 87 237
e 87 240
e 87 254
e 87 272
e 87 280
e 87 295
e 87 338
e 87 347
e 87 362
e 87 366
e 87 368
e 87 391
e 87 409
e 87 413
e 87 428
e 88 89
e 88 101
e 88 108
e 88 109
e 88 131
e 88 132
e 88 138
e 88 156
e 88 172
e 88 192
e 88 209
e 88 211
e 88 217
e 88 234
e 88 236
e 88 240
e 88 244
e 88 245
e 88 254
e 88 256
e 88 275
e 88 277
e 88 279
e 88 280
e 88 297
e 88 305
e 88 317
e 88 321
e 88 338
e 88 347
e 88 354
e 88 374
e 88 392
e 88 397
e 88 410
e 88 423
e 88 442
e 88 447
e 88 449
e 88 450
e 88 451
e 88 774
e 89 90
e 89 92
e 89 94
e 89 95
e 89 97
e 89 101
e 89 102
e 89 103
e 89 104
e 89 105
e 89 106
e 89 107
e 89 108
e 89 109
e 89 111
e 89 114
e 89 117
e 89 119
e 89 125
e 89 126
e 89 128
e 89 130
e 89 131
e 89 132
e 89 133
e 89 138
e 89 139
e 89 140
e 89 141
e 89 142
e 89 143
e 89 148
e 89 149
e 89 151
e 89 152
e 89 153
e 89 155
e 89 156
e 89 157
e 89 158
e 89 159
e 89 160
e 89 161
e 89 162
e 89 163
e 89 164
e 89 165
e 89 167
e 89 168
e 89 170
e 89 171
e 89 172
e 89 173
e 89 174
e 89 175
e 89 177
e 89 178
e 89 179
e 89 180
e 89 181
e 89 182
e 89 183
e 89 184
e 89 186
e 89 187
e 89 188
e 89 189
e 89 192
e 89 193
e 89 194
e 89 195
e 89 196
e 89 197
e 89 198
e 89 199
e 89 200
e 89 201
e 89 203
e 89 204
e 89 205
e 89 207
e 89 208
e 89 209
e 89 211
e 89 212
e 89 213
e 89 215
e 89 216
e 89 217
e 89 218
e 89 219
e 89 220
e 89 222
e 89 223
e 89 224
e 89 225
e 89 226
e 89 227
e 89 228
e 89 230
e 89 231
e 89 233
e 89 234
e 89 235
e 89 236
e 89 237
e 89 238
e 89 240
e 89 241
e 89 242
e 89 243
e 89 244
e 89 245
e 89 246
e 89 249
e 89 251
e 89 254
e 89 255
e 89 256
e 89 257
e 89 258
e 89 260
e 89 265
e 89 266
e 89 267
e 89 268
e 89 271
e 89 272
e 89 273
e 89 275
e 89 276
e 89 277
e 89 279
e 89 280
e 89 283
e 89 285
e 89 286
e 89 287
e 89 289
e 89 291
e 89 293
e 89 294
e 89 295
e 89 296
e 89 297
e 89 298
e 89 299
e 89 300
e 89 301
e 89 302
e 89 303
e 89 304
e 89 305
e 89 306
e 89 307
e 89 308
e 89 310
e 89 312
e 89 313
e 89 316
e 89 317
e 89 318
e 89 319
e 89 320
e 89 321
e 89 322
e 89 323
e 89 325
e 89 326
e 89 327
e 89 329
e 89 333
e 89 335
e 89 336
e 89 337
e 89 338
e 89 341
e 89 342
e 89 344
e 89 345
e 89 346
e 89 347
e 89 348
e 89 349
e 89 350
e 89 351
e 89 352
e 89 353
e 89 354
e 89 355
e 89 357
e 89 358
e 89 359
e 89 360
e 89 361
e 89 362
e 89 363
e 89 364
e 89 365
e 89 366
e 89 367
e 89 368
e 89 369
e 89 371
e 89 372
e 89 373
e 89 374
e 89 375
e 89 376
e 89 377
e 89 378
e 89 379
e 89 380
e 89 381
e 89 382
e 89 383
e 89 384
e 89 385
e 89 386
e 89 388
e 89 390
e 89 391
e 89 392
e 89 393
e 89 394
e 89 395
e 89 396
e 89 397
e 89 398
e 89 399
e 89 400
e 89 401
e 89 402
e 89 404
e 89 405
e 89 406
e 89 407
e 89 408
e 89 409
e 89 410
e 89 411
e 89 412
e 89 413
e 89 415
e 89 417
e 89 418
e 89 419
e 89 420
e 89 421
e 89 422
e 89 423
e 89 424
e 89 425
e 89 426
e 89 427
e 89 428
e 89 429
e 89 430
e 89 431
e 89 432
e 89 433
e 89 434
e 89 435
e 89 436
e 89 437
e 89 438
e 89 439
e 89 440
e 89 441
e 89 442
e 89 443
e 89 444
e 89 445
e 89 446
e 89 447
e 89 448
e 89 449
e 89 450
e 89 451
e 89 452
e 89 454
e 89 455
e 89 456
e 89 457
e 89 460
e 89 461
e 89 462
e 89 467
e 89 469
e 89 470
e 89 471
e 89 473
e 89 474
e 89 475
e 89 476
e 89 477
e 89 478
e 89 479
e 89 480
e 89 481
e 89 483
e 89 484
e 89 485
e 89 486
e 89 489
e 89 490
e 89 491
e 89 492
e 89 493
e 89 496
e 89 497
e 89 498
e 89 499
e 89 500
e 89 502
e 89 503
e 89 504
e 89 505
e 89 506
e 89 508
e 89 513
e 89 514
e 89 515
e 89 516
e 89 517
e 89 518
e 89 519
e 89 520
e 89 521
e 89 527
e 89 528
e 89 529
e 89 530
e 89 537
e 89 545
e 89 546
e 89 551
e 89 552
e 89 553
e 89 554
e 89 555
e 89 560
e 89 562
e 89 563
e 89 565
e 89 566
e 89 567
e 89 568
e 89 569
e 89 570
e 89 571
e 89 573
e 89 575
e 89 576
e 89 577
e 89 578
e 89 579
e 89 580
e 89 581
e 89 582
e 89 583
e 89 584
e 89 585
e 89 587
e 89 590
e 89 591
e 89 592
e 89 593
e 89 595
e 89 596
e 89 599
e 89 604
e 89 606
e 89 607
e 89 609
e 89 610
e 89 614
e 89 615
e 89 616
e 89 617
e 89 618
e 89 619
e 89 620
e 89 621
e 89 622
e 89 623
e 89 624
e 89 625
e 89 626
e 89 627
e 89 632
e 89 633
e 89 640
e 89 642
e 89 643
e 89 644
e 89 645
e 89 646
e 89 647
e 89 648
e 89 651
e 89 657
e 89 659
e 89 660
e 89 661
e 89 662
e 89 663
e 89 664
e 89 665
e 89 666
e 89 667
e 89 668
e 89 669
e 89 675
e 89 677
e 89 678
e 89 679
e 89 680
e 89 681
e 89 682
e 89 684
e 89 685
e 89 690
e 89 691
e 89 692
e 89 694
e 89 695
e 89 696
e 89 697
e 89 698
e 89 699
e 89 700
e 89 702
e 89 703
e 89 704
e 89 705
e 89 706
e 89 707
e 89 709
e 89 710
e 89 711
e 89 712
e 89 713
e 89 714
e 89 715
e 89 716
e 89 717
e 89 718
e 89 719
e 89 720
e 89 721
e 89 723
e 89 725
e 89 726
e 89 727
e 89 728
e 89 729
e 89 730
e 89 731
e 89 732
e 89 733
e 89 734
e 89 735
e 89 737
e 89 738
e 89 739
e 89 740
e 89 741
e 89 743
e 89 744
e 89 746
e 89 747
e 89 748
e 89 749
e 89 750
e 89 751
e 89 753
e 89 754
e 89 755
e 89 756
e 89 757
e 89 758
e 89 759
e 89 760
e 89 761
e 89 762
e 89 763
e 89 764
e 89 765
e 89 766
e 89 767
e 89 768
e 89 769
e 89 770
e 89 771
e 89 772
e 89 773
e 89 774
e 89 775
e 89 776
e 89 777
e 89 778
e 90 91
e 90 95
e 90 101
e 90 107
e 90 108
e 90 111
e 90 114
e 90 117
e 90 126
e 90 131
e 90 138
e 90 142
e 90 149
e 90 165
e 90 175
e 90 176
e 90 178
e 90 179
e 90 185
e 90 186
e 90 189
e 90 192
e 90 200
e 90 203
e 90 209
e 90 210
e 90 211
e 90 213
e 90 215
e 90 217
e 90 220
e 90 222
e 90 234
e 90 236
e 90 237
e 90 254
e 90 256
e 90 257
e 90 262
e 90 272
e 90 277
e 90 279
e 90 281
e 90 283
e 90 285
e 90 286
e 90 289
e 90 295
e 90 297
e 90 298
e 90 305
e 90 311
e 90 317
e 90 338
e 90 348
e 90 351
e 90 362
e 90 366
e 90 368
e 90 369
e 90 371
e 90 378
e 90 388
e 90 397
e 90 405
e 90 410
e 90 418
e 90 423
e 90 424
e 90 428
e 90 434
e 90 438
e 90 441
e 90 445
e 90 452
e 90 456
e 90 774
e 91 107
e 91 131
e 91 138
e 91 142
e 91 192
e 91 209
e 91 210
e 91 234
e 91 272
e 91 311
e 91 424
e 92 93
e 92 94
e 92 95
e 92 96
e 92 97
e 92 98
e 92 99
e 92 100
e 92 101
e 92 103
e 92 107
e 92 108
e 92 114
e 92 117
e 92 125
e 92 131
e 92 132
e 92 138
e 92 141
e 92 142
e 92 152
e 92 153
e 92 156
e 92 160
e 92 161
e 92 165
e 92 174
e 92 179
e 92 181
e 92 183
e 92 185
e 92 186
e 92 187
e 92 189
e 92 196
e 92 198
e 92 199
e 92 200
e 92 201
e 92 203
e 92 205
e 92 206
e 92 207
e 92 208
e 92 209
e 92 211
e 92 213
e 92 215
e 92 216
e 92 218
e 92 220
e 92 222
e 92 223
e 92 225
e 92 230
e 92 231
e 92 232
e 92 234
e 92 236
e 92 237
e 92 240
e 92 243
e 92 244
e 92 245
e 92 249
e 92 251
e 92 254
e 92 255
e 92 256
e 92 257
e 92 258
e 92 262
e 92 264
e 92 265
e 92 267
e 92 269
e 92 270
e 92 272
e 92 273
e 92 277
e 92 279
e 92 280
e 92 282
e 92 283
e 92 286
e 92 287
e 92 289
e 92 290
e 92 292
e 92 295
e 92 298
e 92 304
e 92 305
e 92 307
e 92 308
e 92 309
e 92 310
e 92 319
e 92 320
e 92 321
e 92 325
e 92 326
e 92 330
e 92 333
e 92 336
e 92 337
e 92 338
e 92 339
e 92 340
e 92 341
e 92 342
e 92 343
e 92 345
e 92 347
e 92 349
e 92 350
e 92 354
e 92 356
e 92 357
e 92 359
e 92 360
e 92 362
e 92 368
e 92 373
e 92 375
e 92 377
e 92 378
e 92 381
e 92 382
e 92 383
e 92 394
e 92 395
e 92 396
e 92 399
e 92 401
e 92 402
e 92 405
e 92 406
e 92 407
e 92 409
e 92 410
e 92 412
e 92 413
e 92 414
e 92 416
e 92 421
e 92 422
e 92 424
e 92 425
e 92 427
e 92 429
e 92 430
e 92 432
e 92 434
e 92 435
e 92 436
e 92 437
e 92 438
e 92 441
e 92 443
e 92 446
e 92 448
e 92 450
e 92 451
e 92 453
e 92 457
e 92 460
e 92 461
e 92 462
e 92 467
e 92 471
e 92 473
e 92 476
e 92 477
e 92 479
e 92 480
e 92 481
e 92 485
e 92 486
e 92 491
e 92 496
e 92 498
e 92 502
e 92 505
e 92 513
e 92 514
e 92 516
e 92 528
e 92 530
e 92 531
e 92 532
e 92 533
e 92 534
e 92 536
e 92 537
e 92 545
e 92 546
e 92 551
e 92 552
e 92 553
e 92 554
e 92 555
e 92 570
e 92 571
e 92 575
e 92 577
e 92 578
e 92 580
e 92 581
e 92 583
e 92 593
e 92 599
e 92 601
e 92 604
e 92 606
e 92 607
e 92 623
e 92 626
e 92 632
e 92 644
e 92 647
e 92 648
e 92 650
e 92 651
e 92 659
e 92 662
e 92 665
e 92 667
e 92 674
e 92 675
e 92 676
e 92 681
e 92 682
e 92 684
e 92 693
e 92 696
e 92 698
e 92 699
e 92 701
e 92 703
e 92 706
e 92 707
e 92 708
e 92 711
e 92 714
e 92 715
e 92 716
e 92 718
e 92 719
e 92 721
e 92 723
e 92 734
e 92 735
e 92 738
e 92 741
e 92 742
e 92 743
e 92 748
e 92 749
e 92 750
e 92 752
e 92 754
e 92 755
e 92 756
e 92 757
e 92 758
e 92 759
e 92 760
e 92 762
e 92 763
e 92 764
e 92 765
e 92 769
e 92 770
e 92 771
e 92 773
e 92 774
e 92 775
e 92 777
e 92 778
e 93 94
e 93 96
e 93 97
e 93 99
e 93 100
e 93 108
e 93 114
e 93 138
e 93 183
e 93 185
e 93 196
e 93 207
e 93 222
e 93 230
e 93 257
e 93 273
e 93 279
e 93 287
e 93 295
e 93 320
e 93 356
e 93 375
e 93 402
e 93 425
e 94 95
e 94 96
e 94 97
e 94 99
e 94 100
e 94 101
e 94 102
e 94 103
e 94 107
e 94 108
e 94 109
e 94 114
e 94 121
e 94 125
e 94 126
e 94 130
e 94 131
e 94 138
e 94 139
e 94 142
e 94 146
e 94 152
e 94 154
e 94 155
e 94 156
e 94 158
e 94 159
e 94 160
e 94 161
e 94 162
e 94 163
e 94 165
e 94 167
e 94 168
e 94 171
e 94 172
e 94 173
e 94 174
e 94 177
e 94 178
e 94 179
e 94 183
e 94 185
e 94 187
e 94 188
e 94 189
e 94 192
e 94 196
e 94 198
e 94 199
e 94 200
e 94 201
e 94 203
e 94 205
e 94 207
e 94 208
e 94 209
e 94 211
e 94 216
e 94 218
e 94 220
e 94 222
e 94 228
e 94 230
e 94 234
e 94 236
e 94 240
e 94 242
e 94 243
e 94 244
e 94 245
e 94 246
e 94 249
e 94 253
e 94 254
e 94 255
e 94 256
e 94 257
e 94 258
e 94 260
e 94 262
e 94 265
e 94 266
e 94 267
e 94 272
e 94 273
e 94 275
e 94 276
e 94 277
e 94 279
e 94 280
e 94 283
e 94 284
e 94 286
e 94 287
e 94 289
e 94 291
e 94 292
e 94 295
e 94 297
e 94 298
e 94 299
e 94 300
e 94 303
e 94 304
e 94 305
e 94 307
e 94 308
e 94 309
e 94 310
e 94 316
e 94 319
e 94 320
e 94 321
e 94 322
e 94 323
e 94 325
e 94 327
e 94 329
e 94 330
e 94 333
e 94 335
e 94 337
e 94 338
e 94 339
e 94 340
e 94 341
e 94 344
e 94 345
e 94 347
e 94 349
e 94 350
e 94 352
e 94 353
e 94 354
e 94 355
e 94 356
e 94 357
e 94 361
e 94 362
e 94 365
e 94 367
e 94 368
e 94 369
e 94 370
e 94 373
e 94 375
e 94 379
e 94 380
e 94 381
e 94 382
e 94 383
e 94 384
e 94 388
e 94 391
e 94 392
e 94 393
e 94 399
e 94 400
e 94 402
e 94 404
e 94 407
e 94 410
e 94 413
e 94 417
e 94 419
e 94 422
e 94 423
e 94 424
e 94 425
e 94 427
e 94 428
e 94 434
e 94 435
e 94 436
e 94 437
e 94 438
e 94 442
e 94 444
e 94 446
e 94 451
e 94 457
e 94 460
e 94 462
e 94 467
e 94 473
e 94 476
e 94 477
e 94 479
e 94 480
e 94 481
e 94 486
e 94 491
e 94 498
e 94 502
e 94 505
e 94 513
e 94 514
e 94 530
e 94 537
e 94 543
e 94 545
e 94 546
e 94 551
e 94 562
e 94 563
e 94 570
e 94 575
e 94 577
e 94 581
e 94 583
e 94 599
e 94 606
e 94 607
e 94 611
e 94 616
e 94 618
e 94 620
e 94 622
e 94 623
e 94 626
e 94 629
e 94 638
e 94 640
e 94 648
e 94 651
e 94 657
e 94 662
e 94 675
e 94 679
e 94 681
e 94 682
e 94 684
e 94 691
e 94 698
e 94 703
e 94 708
e 94 715
e 94 716
e 94 718
e 94 719
e 94 721
e 94 723
e 94 724
e 94 727
e 94 728
e 94 729
e 94 731
e 94 733
e 94 734
e 94 737
e 94 738
e 94 747
e 94 752
e 94 753
e 94 754
e 94 757
e 94 760
e 94 761
e 94 763
e 94 764
e 94 766
e 94 767
e 94 768
e 94 770
e 94 771
e 94 773
e 94 774
e 94 775
e 94 777
e 94 778
e 95 97
e 95 99
e 95 101
e 95 103
e 95 107
e 95 108
e 95 111
e 95 114
e 95 116
e 95 117
e 95 118
e 95 125
e 95 126
e 95 130
e 95 131
e 95 138
e 95 139
e 95 142
e 95 143
e 95 147
e 95 152
e 95 153
e 95 156
e 95 160
e 95 161
e 95 163
e 95 165
e 95 174
e 95 175
e 95 178
e 95 179
e 95 186
e 95 188
e 95 189
e 95 195
e 95 199
e 95 200
e 95 201
e 95 202
e 95 203
e 95 204
e 95 205
e 95 207
e 95 208
e 95 209
e 95 215
e 95 216
e 95 217
e 95 218
e 95 219
e 95 220
e 95 222
e 95 223
e 95 234
e 95 236
e 95 240
e 95 243
e 95 244
e 95 245
e 95 246
e 95 249
e 95 254
e 95 257
e 95 258
e 95 260
e 95 262
e 95 266
e 95 268
e 95 269
e 95 272
e 95 273
e 95 277
e 95 279
e 95 280
e 95 281
e 95 282
e 95 283
e 95 285
e 95 286
e 95 288
e 95 289
e 95 290
e 95 293
e 95 298
e 95 302
e 95 303
e 95 307
e 95 308
e 95 309
e 95 310
e 95 313
e 95 314
e 95 316
e 95 317
e 95 319
e 95 320
e 95 321
e 95 323
e 95 325
e 95 326
e 95 329
e 95 330
e 95 335
e 95 337
e 95 339
e 95 341
e 95 343
e 95 345
e 95 347
e 95 348
e 95 349
e 95 350
e 95 351
e 95 352
e 95 362
e 95 365
e 95 366
e 95 367
e 95 368
e 95 369
e 95 370
e 95 371
e 95 372
e 95 376
e 95 377
e 95 378
e 95 380
e 95 381
e 95 382
e 95 383
e 95 388
e 95 391
e 95 397
e 95 398
e 95 401
e 95 402
e 95 404
e 95 405
e 95 407
e 95 408
e 95 410
e 95 413
e 95 418
e 95 420
e 95 422
e 95 423
e 95 428
e 95 433
e 95 434
e 95 435
e 95 436
e 95 437
e 95 438
e 95 440
e 95 441
e 95 442
e 95 444
e 95 445
e 95 446
e 95 448
e 95 449
e 95 451
e 95 454
e 95 455
e 95 456
e 95 460
e 95 467
e 95 469
e 95 471
e 95 476
e 95 477
e 95 479
e 95 480
e 95 484
e 95 491
e 95 496
e 95 497
e 95 498
e 95 499
e 95 502
e 95 505
e 95 513
e 95 514
e 95 515
e 95 520
e 95 530
e 95 537
e 95 538
e 95 540
e 95 541
e 95 542
e 95 556
e 95 570
e 95 581
e 95 582
e 95 590
e 95 593
e 95 603
e 95 607
e 95 608
e 95 616
e 95 621
e 95 624
e 95 625
e 95 626
e 95 628
e 95 629
e 95 630
e 95 631
e 95 633
e 95 634
e 95 640
e 95 643
e 95 646
e 95 647
e 95 648
e 95 651
e 95 658
e 95 663
e 95 670
e 95 671
e 95 672
e 95 673
e 95 678
e 95 681
e 95 684
e 95 686
e 95 687
e 95 691
e 95 696
e 95 705
e 95 715
e 95 716
e 95 731
e 95 734
e 95 736
e 95 738
e 95 745
e 95 747
e 95 748
e 95 750
e 95 753
e 95 754
e 95 757
e 95 761
e 95 763
e 95 764
e 95 769
e 95 774
e 95 777
e 96 97
e 96 98
e 96 99
e 96 100
e 96 108
e 96 114
e 96 117
e 96 165
e 96 183
e 96 185
e 96 186
e 96 189
e 96 196
e 96 200
e 96 207
e 96 211
e 96 213
e 96 215
e 96 222
e 96 230
e 96 237
e 96 256
e 96 257
e 96 262
e 96 272
e 96 273
e 96 283
e 96 287
e 96 295
e 96 310
e 96 320
e 96 338
e 96 347
e 96 356
e 96 375
e 96 402
e 96 425
e 97 99
e 97 100
e 97 103
e 97 104
e 97 107
e 97 108
e 97 114
e 97 116
e 97 117
e 97 118
e 97 120
e 97 122
e 97 123
e 97 130
e 97 138
e 97 139
e 97 142
e 97 152
e 97 156
e 97 160
e 97 163
e 97 165
e 97 174
e 97 175
e 97 178
e 97 183
e 97 185
e 97 196
e 97 200
e 97 201
e 97 205
e 97 207
e 97 208
e 97 209
e 97 216
e 97 217
e 97 218
e 97 219
e 97 220
e 97 222
e 97 230
e 97 231
e 97 234
e 97 236
e 97 243
e 97 249
e 97 257
e 97 258
e 97 262
e 97 264
e 97 266
e 97 267
e 97 270
e 97 272
e 97 273
e 97 276
e 97 279
e 97 280
e 97 281
e 97 282
e 97 283
e 97 287
e 97 293
e 97 295
e 97 303
e 97 305
e 97 307
e 97 310
e 97 313
e 97 314
e 97 319
e 97 320
e 97 321
e 97 323
e 97 325
e 97 326
e 97 327
e 97 328
e 97 329
e 97 330
e 97 337
e 97 339
e 97 341
e 97 345
e 97 347
e 97 349
e 97 350
e 97 352
e 97 353
e 97 356
e 97 357
e 97 361
e 97 362
e 97 365
e 97 368
e 97 374
e 97 375
e 97 376
e 97 381
e 97 383
e 97 384
e 97 402
e 97 403
e 97 404
e 97 405
e 97 406
e 97 407
e 97 416
e 97 425
e 97 427
e 97 440
e 97 444
e 97 445
e 97 447
e 98 99
e 98 100
e 98 101
e 98 107
e 98 114
e 98 117
e 98 152
e 98 160
e 98 165
e 98 179
e 98 183
e 98 185
e 98 186
e 98 189
e 98 200
e 98 209
e 98 211
e 98 213
e 98 215
e 98 220
e 98 231
e 98 237
e 98 245
e 98 256
e 98 258
e 98 262
e 98 272
e 98 273
e 98 280
e 98 283
e 98 295
e 98 310
e 98 320
e 98 321
e 98 330
e 98 338
e 98 347
e 98 402
e 98 416
e 98 425
e 98 441
e 99 100
e 99 108
e 99 114
e 99 116
e 99 117
e 99 118
e 99 130
e 99 139
e 99 160
e 99 165
e 99 174
e 99 183
e 99 185
e 99 186
e 99 189
e 99 196
e 99 199
e 99 200
e 99 205
e 99 207
e 99 208
e 99 211
e 99 213
e 99 215
e 99 216
e 99 218
e 99 219
e 99 222
e 99 224
e 99 226
e 99 230
e 99 236
e 99 237
e 99 243
e 99 244
e 99 256
e 99 257
e 99 260
e 99 262
e 99 265
e 99 267
e 99 272
e 99 273
e 99 279
e 99 281
e 99 283
e 99 287
e 99 295
e 99 297
e 99 303
e 99 310
e 99 313
e 99 314
e 99 320
e 99 321
e 99 325
e 99 327
e 99 337
e 99 338
e 99 345
e 99 347
e 99 352
e 99 356
e 99 362
e 99 368
e 99 375
e 99 376
e 99 382
e 99 402
e 99 404
e 99 405
e 99 425
e 99 432
e 99 438
e 99 444
e 99 445
e 99 448
e 99 458
e 99 459
e 99 460
e 99 461
e 99 462
e 99 477
e 99 481
e 99 484
e 99 505
e 99 513
e 99 514
e 99 515
e 99 516
e 99 523
e 99 524
e 99 525
e 99 526
e 99 536
e 99 537
e 99 545
e 99 552
e 99 571
e 99 577
e 99 581
e 99 601
e 99 614
e 99 623
e 99 636
e 99 650
e 99 651
e 99 662
e 99 675
e 99 676
e 99 681
e 99 682
e 99 684
e 99 696
e 99 713
e 99 714
e 99 731
e 99 734
e 99 749
e 99 752
e 99 756
e 99 757
e 99 758
e 99 763
e 99 764
e 99 773
e 100 108
e 100 114
e 100 117
e 100 165
e 100 183
e 100 185
e 100 186
e 100 189
e 100 196
e 100 200
e 100 207
e 100 211
e 100 213
e 100 215
e 100 222
e 100 230
e 100 237
e 100 256
e 100 257
e 100 262
e 100 272
e 100 273
e 100 283
e 100 287
e 100 295
e 100 310
e 100 320
e 100 338
e 100 347
e 100 356
e 100 375
e 100 402
e 100 425
e 101 102
e 101 103
e 101 105
e 101 106
e 101 107
e 101 108
e 101 109
e 101 111
e 101 114
e 101 117
e 101 119
e 101 121
e 101 124
e 101 125
e 101 126
e 101 127
e 101 128
e 101 130
e 101 131
e 101 132
e 101 134
e 101 135
e 101 138
e 101 139
e 101 140
e 101 141
e 101 142
e 101 143
e 101 146
e 101 148
e 101 149
e 101 151
e 101 152
e 101 153
e 101 154
e 101 155
e 101 156
e 101 159
e 101 160
e 101 161
e 101 163
e 101 164
e 101 165
e 101 171
e 101 172
e 101 173
e 101 174
e 101 175
e 101 176
e 101 177
e 101 178
e 101 179
e 101 180
e 101 181
e 101 182
e 101 184
e 101 186
e 101 187
e 101 188
e 101 189
e 101 191
e 101 192
e 101 194
e 101 195
e 101 196
e 101 197
e 101 198
e 101 199
e 101 200
e 101 201
e 101 203
e 101 204
e 101 205
e 101 206
e 101 207
e 101 208
e 101 209
e 101 210
e 101 211
e 101 212
e 101 213
e 101 215
e 101 216
e 101 217
e 101 218
e 101 219
e 101 220
e 101 222
e 101 223
e 101 224
e 101 226
e 101 227
e 101 228
e 101 229
e 101 230
e 101 231
e 101 232
e 101 233
e 101 234
e 101 235
e 101 236
e 101 237
e 101 238
e 101 240
e 101 241
e 101 242
e 101 243
e 101 244
e 101 245
e 101 246
e 101 248
e 101 249
e 101 251
e 101 252
e 101 254
e 101 255
e 101 256
e 101 257
e 101 258
e 101 260
e 101 262
e 101 264
e 101 265
e 101 266
e 101 267
e 101 268
e 101 269
e 101 270
e 101 271
e 101 272
e 101 273
e 101 274
e 101 275
e 101 277
e 101 278
e 101 279
e 101 280
e 101 282
e 101 283
e 101 284
e 101 285
e 101 286
e 101 287
e 101 288
e 101 289
e 101 290
e 101 291
e 101 292
e 101 293
e 101 294
e 101 295
e 101 296
e 101 297
e 101 298
e 101 299
e 101 300
e 101 301
e 101 302
e 101 304
e 101 305
e 101 306
e 101 307
e 101 308
e 101 309
e 101 310
e 101 312
e 101 316
e 101 317
e 101 318
e 101 319
e 101 320
e 101 321
e 101 322
e 101 323
e 101 324
e 101 325
e 101 326
e 101 327
e 101 329
e 101 330
e 101 331
e 101 333
e 101 334
e 101 335
e 101 336
e 101 337
e 101 338
e 101 339
e 101 340
e 101 341
e 101 342
e 101 343
e 101 344
e 101 346
e 101 347
e 101 348
e 101 349
e 101 350
e 101 352
e 101 354
e 101 355
e 101 356
e 101 357
e 101 359
e 101 360
e 101 361
e 101 362
e 101 363
e 101 364
e 101 365
e 101 366
e 101 367
e 101 368
e 101 369
e 101 370
e 101 371
e 101 372
e 101 373
e 101 374
e 101 376
e 101 377
e 101 378
e 101 380
e 101 381
e 101 382
e 101 383
e 101 384
e 101 385
e 101 386
e 101 387
e 101 388
e 101 389
e 101 390
e 101 391
e 101 392
e 101 393
e 101 397
e 101 398
e 101 399
e 101 400
e 101 401
e 101 402
e 101 403
e 101 404
e 101 405
e 101 406
e 101 407
e 101 408
e 101 409
e 101 410
e 101 411
e 101 412
e 101 413
e 101 414
e 101 415
e 101 416
e 101 417
e 101 419
e 101 420
e 101 421
e 101 422
e 101 423
e 101 424
e 101 425
e 101 426
e 101 427
e 101 428
e 101 431
e 101 432
e 101 433
e 101 434
e 101 435
e 101 436
e 101 437
e 101 438
e 101 439
e 101 440
e 101 441
e 101 442
e 101 443
e 101 444
e 101 445
e 101 446
e 101 447
e 101 448
e 101 449
e 101 450
e 101 451
e 101 452
e 101 454
e 101 455
e 101 456
e 101 457
e 101 460
e 101 461
e 101 462
e 101 463
e 101 467
e 101 468
e 101 470
e 101 471
e 101 472
e 101 473
e 101 475
e 101 476
e 101 477
e 101 478
e 101 479
e 101 480
e 101 481
e 101 482
e 101 484
e 101 485
e 101 486
e 101 488
e 101 489
e 101 491
e 101 493
e 101 496
e 101 497
e 101 498
e 101 499
e 101 500
e 101 502
e 101 505
e 101 513
e 101 514
e 101 515
e 101 516
e 101 517
e 101 521
e 101 525
e 101 527
e 101 529
e 101 530
e 101 537
e 101 540
e 101 543
e 101 545
e 101 546
e 101 547
e 101 548
e 101 549
e 101 551
e 101 552
e 101 553
e 101 558
e 101 560
e 101 562
e 101 563
e 101 564
e 101 565
e 101 568
e 101 570
e 101 571
e 101 577
e 101 579
e 101 580
e 101 581
e 101 583
e 101 585
e 101 587
e 101 589
e 101 590
e 101 592
e 101 593
e 101 594
e 101 595
e 101 596
e 101 599
e 101 604
e 101 607
e 101 609
e 101 610
e 101 612
e 101 613
e 101 614
e 101 615
e 101 616
e 101 618
e 101 619
e 101 620
e 101 621
e 101 622
e 101 623
e 101 625
e 101 626
e 101 627
e 101 629
e 101 632
e 101 633
e 101 636
e 101 638
e 101 640
e 101 642
e 101 643
e 101 644
e 101 645
e 101 646
e 101 648
e 101 649
e 101 651
e 101 652
e 101 653
e 101 654
e 101 655
e 101 656
e 101 657
e 101 658
e 101 659
e 101 660
e 101 661
e 101 662
e 101 663
e 101 664
e 101 665
e 101 666
e 101 668
e 101 669
e 101 671
e 101 672
e 101 677
e 101 678
e 101 679
e 101 680
e 101 681
e 101 682
e 101 683
e 101 684
e 101 685
e 101 687
e 101 688
e 101 690
e 101 691
e 101 692
e 101 693
e 101 694
e 101 695
e 101 696
e 101 697
e 101 700
e 101 702
e 101 704
e 101 705
e 101 706
e 101 707
e 101 708
e 101 709
e 101 710
e 101 711
e 101 712
e 101 714
e 101 715
e 101 716
e 101 717
e 101 718
e 101 719
e 101 720
e 101 721
e 101 722
e 101 723
e 101 724
e 101 725
e 101 726
e 101 730
e 101 731
e 101 732
e 101 733
e 101 734
e 101 735
e 101 736
e 101 738
e 101 739
e 101 741
e 101 742
e 101 743
e 101 744
e 101 745
e 101 746
e 101 747
e 101 748
e 101 749
e 101 750
e 101 751
e 101 752
e 101 753
e 101 754
e 101 755
e 101 756
e 101 757
e 101 758
e 101 759
e 101 760
e 101 761
e 101 762
e 101 763
e 101 764
e 101 765
e 101 766
e 101 768
e 101 769
e 101 770
e 101 771
e 101 772
e 101 773
e 101 774
e 101 775
e 101 776
e 101 777
e 101 778
e 102 103
e 102 108
e 102 109
e 102 125
e 102 172
e 102 188
e 102 192
e 102 209
e 102 211
e 102 222
e 102 236
e 102 240
e 102 244
e 102 245
e 102 254
e 102 256
e 102 279
e 102 280
e 102 289
e 102 297
e 102 320
e 102 325
e 102 347
e 102 357
e 102 392
e 102 423
e 102 427
e 102 442
e 102 451
e 102 774
e 103 107
e 103 108
e 103 109
e 103 111
e 103 125
e 103 130
e 103 131
e 103 135
e 103 138
e 103 142
e 103 146
e 103 152
e 103 156
e 103 159
e 103 160
e 103 163
e 103 165
e 103 172
e 103 179
e 103 187
e 103 188
e 103 189
e 103 191
e 103 192
e 103 195
e 103 198
e 103 200
e 103 201
e 103 205
e 103 207
e 103 208
e 103 209
e 103 211
e 103 218
e 103 220
e 103 222
e 103 223
e 103 229
e 103 236
e 103 240
e 103 241
e 103 242
e 103 243
e 103 244
e 103 245
e 103 249
e 103 254
e 103 256
e 103 258
e 103 260
e 103 262
e 103 265
e 103 267
e 103 272
e 103 273
e 103 274
e 103 275
e 103 277
e 103 278
e 103 279
e 103 280
e 103 283
e 103 284
e 103 285
e 103 286
e 103 289
e 103 292
e 103 297
e 103 298
e 103 306
e 103 307
e 103 309
e 103 310
e 103 316
e 103 317
e 103 318
e 103 319
e 103 320
e 103 321
e 103 324
e 103 325
e 103 327
e 103 329
e 103 330
e 103 335
e 103 336
e 103 339
e 103 341
e 103 344
e 103 347
e 103 349
e 103 357
e 103 362
e 103 365
e 103 368
e 103 370
e 103 376
e 103 377
e 103 380
e 103 381
e 103 384
e 103 392
e 103 399
e 103 402
e 103 407
e 103 422
e 103 423
e 103 427
e 103 434
e 103 435
e 103 436
e 103 437
e 103 438
e 103 439
e 103 442
e 103 451
e 103 456
e 103 774
e 104 117
e 104 142
e 104 163
e 104 165
e 104 175
e 104 178
e 104 208
e 104 222
e 104 276
e 104 280
e 104 283
e 104 293
e 104 320
e 104 323
e 104 326
e 104 327
e 104 347
e 104 353
e 104 361
e 104 365
e 104 383
e 104 384
e 104 440
e 105 106
e 105 128
e 105 151
e 105 156
e 105 165
e 105 194
e 105 195
e 105 197
e 105 200
e 105 208
e 105 213
e 105 216
e 105 222
e 105 227
e 105 245
e 105 249
e 105 272
e 105 283
e 105 285
e 105 289
e 105 293
e 105 294
e 105 318
e 105 321
e 105 325
e 105 346
e 105 354
e 105 385
e 105 413
e 105 415
e 106 128
e 106 151
e 106 156
e 106 165
e 106 194
e 106 195
e 106 197
e 106 200
e 106 208
e 106 213
e 106 216
e 106 222
e 106 227
e 106 245
e 106 249
e 106 272
e 106 283
e 106 285
e 106 289
e 106 293
e 106 294
e 106 318
e 106 321
e 106 325
e 106 346
e 106 354
e 106 385
e 106 413
e 106 415
e 107 108
e 107 109
e 107 111
e 107 114
e 107 115
e 107 117
e 107 122
e 107 123
e 107 125
e 107 126
e 107 127
e 107 128
e 107 130
e 107 131
e 107 132
e 107 133
e 107 135
e 107 136
e 107 138
e 107 140
e 107 142
e 107 144
e 107 146
e 107 148
e 107 152
e 107 153
e 107 156
e 107 159
e 107 160
e 107 163
e 107 164
e 107 165
e 107 172
e 107 173
e 107 174
e 107 177
e 107 179
e 107 180
e 107 181
e 107 183
e 107 186
e 107 187
e 107 189
e 107 190
e 107 191
e 107 192
e 107 195
e 107 196
e 107 198
e 107 199
e 107 200
e 107 201
e 107 203
e 107 205
e 107 207
e 107 208
e 107 209
e 107 210
e 107 211
e 107 212
e 107 213
e 107 215
e 107 216
e 107 217
e 107 219
e 107 220
e 107 221
e 107 222
e 107 223
e 107 225
e 107 230
e 107 231
e 107 232
e 107 234
e 107 236
e 107 237
e 107 240
e 107 241
e 107 242
e 107 243
e 107 244
e 107 245
e 107 247
e 107 248
e 107 249
e 107 250
e 107 251
e 107 252
e 107 253
e 107 254
e 107 255
e 107 256
e 107 257
e 107 258
e 107 259
e 107 260
e 107 261
e 107 262
e 107 264
e 107 265
e 107 266
e 107 267
e 107 270
e 107 271
e 107 272
e 107 273
e 107 274
e 107 275
e 107 276
e 107 277
e 107 278
e 107 279
e 107 280
e 107 283
e 107 284
e 107 285
e 107 286
e 107 287
e 107 288
e 107 289
e 107 291
e 107 292
e 107 293
e 107 294
e 107 298
e 107 302
e 107 304
e 107 305
e 107 307
e 107 308
e 107 309
e 107 310
e 107 311
e 107 312
e 107 313
e 107 316
e 107 317
e 107 318
e 107 319
e 107 320
e 107 321
e 107 322
e 107 323
e 107 325
e 107 326
e 107 327
e 107 328
e 107 329
e 107 330
e 107 333
e 107 334
e 107 335
e 107 336
e 107 337
e 107 338
e 107 340
e 107 343
e 107 344
e 107 345
e 107 346
e 107 347
e 107 349
e 107 354
e 107 356
e 107 357
e 107 361
e 107 362
e 107 364
e 107 367
e 107 368
e 107 370
e 107 372
e 107 373
e 107 374
e 107 375
e 107 376
e 107 377
e 107 378
e 107 379
e 107 380
e 107 381
e 107 382
e 107 383
e 107 384
e 107 386
e 107 389
e 107 392
e 107 394
e 107 395
e 107 396
e 107 398
e 107 399
e 107 400
e 107 401
e 107 402
e 107 403
e 107 405
e 107 406
e 107 407
e 107 409
e 107 411
e 107 413
e 107 414
e 107 415
e 107 416
e 107 417
e 107 419
e 107 420
e 107 422
e 107 423
e 107 424
e 107 425
e 107 426
e 107 427
e 107 428
e 107 429
e 107 430
e 107 433
e 107 434
e 107 435
e 107 436
e 107 437
e 107 438
e 107 439
e 107 440
e 107 441
e 107 442
e 107 443
e 107 445
e 107 446
e 107 447
e 107 448
e 107 449
e 107 450
e 107 451
e 107 453
e 107 455
e 107 461
e 107 464
e 107 465
e 107 466
e 107 468
e 107 469
e 107 470
e 107 471
e 107 478
e 107 485
e 107 486
e 107 488
e 107 491
e 107 502
e 107 503
e 107 504
e 107 505
e 107 506
e 107 513
e 107 514
e 107 515
e 107 519
e 107 531
e 107 532
e 107 533
e 107 534
e 107 537
e 107 545
e 107 547
e 107 551
e 107 552
e 107 558
e 107 564
e 107 565
e 107 571
e 107 577
e 107 579
e 107 581
e 107 593
e 107 596
e 107 626
e 107 627
e 107 632
e 107 642
e 107 646
e 107 648
e 107 651
e 107 652
e 107 656
e 107 657
e 107 658
e 107 664
e 107 665
e 107 666
e 107 675
e 107 680
e 107 682
e 107 684
e 107 690
e 107 701
e 107 702
e 107 713
e 107 734
e 107 740
e 107 741
e 107 743
e 107 746
e 107 749
e 107 774
e 108 109
e 108 111
e 108 114
e 108 115
e 108 117
e 108 122
e 108 123
e 108 125
e 108 126
e 108 128
e 108 130
e 108 131
e 108 132
e 108 133
e 108 136
e 108 137
e 108 138
e 108 139
e 108 142
e 108 144
e 108 146
e 108 148
e 108 152
e 108 153
e 108 154
e 108 155
e 108 156
e 108 157
e 108 159
e 108 161
e 108 163
e 108 164
e 108 165
e 108 170
e 108 172
e 108 174
e 108 175
e 108 176
e 108 177
e 108 179
e 108 180
e 108 181
e 108 182
e 108 183
e 108 185
e 108 186
e 108 187
e 108 188
e 108 189
e 108 192
e 108 195
e 108 196
e 108 198
e 108 200
e 108 201
e 108 203
e 108 205
e 108 207
e 108 208
e 108 209
e 108 210
e 108 211
e 108 213
e 108 215
e 108 216
e 108 217
e 108 219
e 108 220
e 108 222
e 108 223
e 108 225
e 108 228
e 108 230
e 108 232
e 108 233
e 108 234
e 108 235
e 108 236
e 108 237
e 108 240
e 108 241
e 108 242
e 108 243
e 108 244
e 108 245
e 108 246
e 108 247
e 108 248
e 108 249
e 108 250
e 108 251
e 108 253
e 108 254
e 108 256
e 108 257
e 108 258
e 108 259
e 108 260
e 108 262
e 108 264
e 108 265
e 108 266
e 108 267
e 108 268
e 108 270
e 108 272
e 108 273
e 108 274
e 108 275
e 108 276
e 108 277
e 108 278
e 108 279
e 108 280
e 108 283
e 108 284
e 108 285
e 108 286
e 108 287
e 108 289
e 108 291
e 108 292
e 108 293
e 108 294
e 108 295
e 108 296
e 108 297
e 108 298
e 108 299
e 108 300
e 108 304
e 108 305
e 108 307
e 108 308
e 108 309
e 108 310
e 108 311
e 108 313
e 108 315
e 108 316
e 108 317
e 108 318
e 108 319
e 108 320
e 108 321
e 108 322
e 108 323
e 108 325
e 108 326
e 108 327
e 108 328
e 108 329
e 108 331
e 108 333
e 108 335
e 108 336
e 108 337
e 108 338
e 108 340
e 108 341
e 108 342
e 108 345
e 108 346
e 108 347
e 108 349
e 108 350
e 108 351
e 108 353
e 108 355
e 108 356
e 108 357
e 108 361
e 108 362
e 108 363
e 108 364
e 108 365
e 108 366
e 108 367
e 108 368
e 108 369
e 108 370
e 108 371
e 108 373
e 108 374
e 108 375
e 108 376
e 108 377
e 108 378
e 108 379
e 108 380
e 108 381
e 108 382
e 108 383
e 108 384
e 108 386
e 108 388
e 108 391
e 108 392
e 108 394
e 108 395
e 108 396
e 108 398
e 108 399
e 108 401
e 108 402
e 108 404
e 108 405
e 108 406
e 108 407
e 108 408
e 108 409
e 108 410
e 108 412
e 108 413
e 108 415
e 108 416
e 108 417
e 108 418
e 108 419
e 108 420
e 108 423
e 108 424
e 108 425
e 108 426
e 108 427
e 108 428
e 108 429
e 108 430
e 108 433
e 108 434
e 108 435
e 108 436
e 108 437
e 108 438
e 108 439
e 108 441
e 108 442
e 108 444
e 108 445
e 108 446
e 108 447
e 108 448
e 108 449
e 108 450
e 108 451
e 108 452
e 108 454
e 108 455
e 108 774
e 109 110
e 109 111
e 109 112
e 109 113
e 109 114
e 109 117
e 109 125
e 109 128
e 109 131
e 109 136
e 109 139
e 109 142
e 109 144
e 109 156
e 109 164
e 109 165
e 109 172
e 109 174
e 109 188
e 109 189
e 109 192
e 109 200
e 109 203
e 109 208
e 109 209
e 109 211
e 109 213
e 109 216
e 109 219
e 109 222
e 109 225
e 109 232
e 109 236
e 109 239
e 109 240
e 109 244
e 109 245
e 109 247
e 109 249
e 109 250
e 109 254
e 109 255
e 109 256
e 109 275
e 109 276
e 109 277
e 109 279
e 109 280
e 109 283
e 109 289
e 109 297
e 109 299
e 109 300
e 109 311
e 109 317
e 109 320
e 109 325
e 109 328
e 109 329
e 109 345
e 109 347
e 109 357
e 109 374
e 109 382
e 109 392
e 109 402
e 109 404
e 109 413
e 109 415
e 109 416
e 109 420
e 109 423
e 109 425
e 109 426
e 109 427
e 109 437
e 109 442
e 109 447
e 109 449
e 109 450
e 109 451
e 109 774
e 110 111
e 110 112
e 110 113
e 110 114
e 110 117
e 110 128
e 110 139
e 110 164
e 110 165
e 110 174
e 110 200
e 110 203
e 110 208
e 110 213
e 110 216
e 110 219
e 110 225
e 110 239
e 110 245
e 110 249
e 110 255
e 110 256
e 110 280
e 110 283
e 110 289
e 110 299
e 110 300
e 110 345
e 110 382
e 110 402
e 110 404
e 110 413
e 110 415
e 110 425
e 111 112
e 111 113
e 111 114
e 111 117
e 111 128
e 111 130
e 111 131
e 111 135
e 111 138
e 111 139
e 111 153
e 111 161
e 111 163
e 111 164
e 111 165
e 111 174
e 111 177
e 111 178
e 111 179
e 111 186
e 111 187
e 111 188
e 111 189
e 111 191
e 111 193
e 111 200
e 111 201
e 111 203
e 111 207
e 111 208
e 111 209
e 111 213
e 111 216
e 111 217
e 111 219
e 111 220
e 111 222
e 111 224
e 111 225
e 111 228
e 111 234
e 111 236
e 111 239
e 111 240
e 111 241
e 111 243
e 111 245
e 111 249
e 111 254
e 111 255
e 111 256
e 111 260
e 111 265
e 111 272
e 111 274
e 111 275
e 111 277
e 111 278
e 111 279
e 111 280
e 111 283
e 111 284
e 111 285
e 111 286
e 111 289
e 111 292
e 111 298
e 111 299
e 111 300
e 111 301
e 111 306
e 111 313
e 111 317
e 111 320
e 111 321
e 111 324
e 111 325
e 111 327
e 111 332
e 111 335
e 111 336
e 111 338
e 111 342
e 111 344
e 111 345
e 111 348
e 111 354
e 111 362
e 111 363
e 111 364
e 111 366
e 111 368
e 111 371
e 111 376
e 111 377
e 111 378
e 111 382
e 111 387
e 111 390
e 111 393
e 111 397
e 111 402
e 111 404
e 111 408
e 111 410
e 111 413
e 111 415
e 111 417
e 111 425
e 111 428
e 111 433
e 111 435
e 111 437
e 111 438
e 111 442
e 111 452
e 111 454
e 111 456
e 112 113
e 112 114
e 112 117
e 112 128
e 112 139
e 112 164
e 112 165
e 112 174
e 112 200
e 112 203
e 112 208
e 112 213
e 112 216
e 112 219
e 112 225
e 112 239
e 112 245
e 112 249
e 112 255
e 112 256
e 112 280
e 112 283
e 112 289
e 112 299
e 112 300
e 112 345
e 112 382
e 112 402
e 112 404
e 112 413
e 112 415
e 112 425
e 113 114
e 113 117
e 113 128
e 113 139
e 113 164
e 113 165
e 113 174
e 113 200
e 113 203
e 113 208
e 113 213
e 113 216
e 113 219
e 113 225
e 113 239
e 113 245
e 113 249
e 113 255
e 113 256
e 113 280
e 113 283
e 113 289
e 113 299
e 113 300
e 113 345
e 113 382
e 113 402
e 113 404
e 113 413
e 113 415
e 113 425
e 114 117
e 114 125
e 114 127
e 114 128
e 114 129
e 114 130
e 114 131
e 114 132
e 114 138
e 114 139
e 114 141
e 114 142
e 114 145
e 114 147
e 114 152
e 114 153
e 114 156
e 114 159
e 114 160
e 114 161
e 114 163
e 114 164
e 114 165
e 114 174
e 114 175
e 114 176
e 114 179
e 114 181
e 114 183
e 114 185
e 114 186
e 114 187
e 114 189
e 114 193
e 114 195
e 114 196
e 114 199
e 114 200
e 114 201
e 114 203
e 114 204
e 114 205
e 114 207
e 114 208
e 114 209
e 114 210
e 114 211
e 114 213
e 114 214
e 114 215
e 114 216
e 114 217
e 114 218
e 114 219
e 114 220
e 114 222
e 114 223
e 114 224
e 114 225
e 114 229
e 114 230
e 114 232
e 114 233
e 114 234
e 114 236
e 114 237
e 114 239
e 114 240
e 114 241
e 114 243
e 114 245
e 114 248
e 114 249
e 114 251
e 114 252
e 114 254
e 114 255
e 114 256
e 114 257
e 114 258
e 114 260
e 114 262
e 114 263
e 114 265
e 114 267
e 114 272
e 114 273
e 114 275
e 114 277
e 114 278
e 114 279
e 114 280
e 114 283
e 114 284
e 114 285
e 114 286
e 114 287
e 114 288
e 114 289
e 114 292
e 114 295
e 114 297
e 114 298
e 114 299
e 114 300
e 114 301
e 114 302
e 114 303
e 114 305
e 114 306
e 114 308
e 114 309
e 114 310
e 114 313
e 114 315
e 114 317
e 114 318
e 114 320
e 114 321
e 114 323
e 114 324
e 114 325
e 114 326
e 114 327
e 114 329
e 114 330
e 114 331
e 114 332
e 114 333
e 114 334
e 114 335
e 114 336
e 114 337
e 114 338
e 114 342
e 114 344
e 114 345
e 114 347
e 114 349
e 114 350
e 114 351
e 114 352
e 114 354
e 114 356
e 114 359
e 114 362
e 114 363
e 114 364
e 114 366
e 114 367
e 114 368
e 114 371
e 114 372
e 114 373
e 114 375
e 114 376
e 114 377
e 114 378
e 114 381
e 114 382
e 114 383
e 114 385
e 114 386
e 114 387
e 114 389
e 114 390
e 114 391
e 114 393
e 114 394
e 114 395
e 114 396
e 114 398
e 114 399
e 114 400
e 114 402
e 114 404
e 114 407
e 114 408
e 114 409
e 114 410
e 114 411
e 114 413
e 114 414
e 114 415
e 114 417
e 114 420
e 114 422
e 114 423
e 114 425
e 114 428
e 114 429
e 114 430
e 114 432
e 114 434
e 114 435
e 114 436
e 114 437
e 114 438
e 114 439
e 114 440
e 114 442
e 114 443
e 114 444
e 114 446
e 114 447
e 114 448
e 114 449
e 114 452
e 114 454
e 114 455
e 114 456
e 114 460
e 114 461
e 114 468
e 114 476
e 114 477
e 114 479
e 114 484
e 114 486
e 114 489
e 114 493
e 114 496
e 114 498
e 114 502
e 114 505
e 114 513
e 114 514
e 114 515
e 114 516
e 114 527
e 114 530
e 114 545
e 114 547
e 114 549
e 114 551
e 114 558
e 114 562
e 114 570
e 114 571
e 114 581
e 114 582
e 114 583
e 114 587
e 114 589
e 114 590
e 114 593
e 114 594
e 114 596
e 114 599
e 114 608
e 114 613
e 114 615
e 114 621
e 114 622
e 114 625
e 114 626
e 114 636
e 114 640
e 114 642
e 114 646
e 114 648
e 114 649
e 114 651
e 114 652
e 114 657
e 114 658
e 114 659
e 114 663
e 114 664
e 114 669
e 114 670
e 114 672
e 114 677
e 114 679
e 114 680
e 114 681
e 114 682
e 114 683
e 114 684
e 114 685
e 114 687
e 114 690
e 114 691
e 114 692
e 114 694
e 114 696
e 114 707
e 114 714
e 114 715
e 114 717
e 114 718
e 114 731
e 114 734
e 114 735
e 114 738
e 114 748
e 114 754
e 114 755
e 114 757
e 114 759
e 114 761
e 114 765
e 114 776
e 114 777
e 115 125
e 115 142
e 115 179
e 115 196
e 115 208
e 115 209
e 115 220
e 115 240
e 115 241
e 115 265
e 115 272
e 115 308
e 115 309
e 115 310
e 115 320
e 115 340
e 115 356
e 115 362
e 115 370
e 115 375
e 115 379
e 115 380
e 115 413
e 115 416
e 115 438
e 115 441
e 116 117
e 116 118
e 116 130
e 116 139
e 116 160
e 116 174
e 116 205
e 116 216
e 116 219
e 116 243
e 116 257
e 116 273
e 116 279
e 116 281
e 116 303
e 116 313
e 116 314
e 116 321
e 116 325
e 116 337
e 116 345
e 116 352
e 116 362
e 116 368
e 116 376
e 116 402
e 116 404
e 116 405
e 116 444
e 116 445
e 117 118
e 117 120
e 117 122
e 117 123
e 117 128
e 117 130
e 117 131
e 117 132
e 117 138
e 117 139
e 117 142
e 117 152
e 117 156
e 117 159
e 117 160
e 117 161
e 117 163
e 117 164
e 117 165
e 117 170
e 117 174
e 117 175
e 117 176
e 117 178
e 117 179
e 117 180
e 117 181
e 117 182
e 117 183
e 117 185
e 117 186
e 117 187
e 117 189
e 117 195
e 117 196
e 117 197
e 117 200
e 117 201
e 117 203
e 117 205
e 117 207
e 117 208
e 117 209
e 117 211
e 117 213
e 117 215
e 117 216
e 117 217
e 117 218
e 117 219
e 117 220
e 117 222
e 117 223
e 117 225
e 117 227
e 117 231
e 117 233
e 117 234
e 117 235
e 117 236
e 117 237
e 117 239
e 117 240
e 117 243
e 117 245
e 117 249
e 117 251
e 117 253
e 117 254
e 117 255
e 117 256
e 117 257
e 117 258
e 117 262
e 117 264
e 117 265
e 117 266
e 117 267
e 117 270
e 117 271
e 117 272
e 117 273
e 117 276
e 117 279
e 117 280
e 117 281
e 117 282
e 117 283
e 117 285
e 117 286
e 117 287
e 117 289
e 117 291
e 117 293
e 117 294
e 117 295
e 117 296
e 117 297
e 117 299
e 117 300
e 117 303
e 117 305
e 117 307
e 117 310
e 117 313
e 117 314
e 117 318
e 117 319
e 117 320
e 117 321
e 117 322
e 117 323
e 117 325
e 117 326
e 117 327
e 117 328
e 117 329
e 117 330
e 117 331
e 117 333
e 117 337
e 117 338
e 117 339
e 117 345
e 117 346
e 117 347
e 117 350
e 117 351
e 117 352
e 117 353
e 117 356
e 117 357
e 117 361
e 117 362
e 117 364
e 117 365
e 117 366
e 117 367
e 117 368
e 117 371
e 117 372
e 117 374
e 117 376
e 117 377
e 117 378
e 117 382
e 117 383
e 117 384
e 117 386
e 117 388
e 117 391
e 117 402
e 117 403
e 117 404
e 117 405
e 117 406
e 117 407
e 117 409
e 117 410
e 117 413
e 117 415
e 117 416
e 117 418
e 117 422
e 117 423
e 117 424
e 117 425
e 117 427
e 117 428
e 117 429
e 117 430
e 117 434
e 117 436
e 117 437
e 117 438
e 117 439
e 117 440
e 117 441
e 117 442
e 117 444
e 117 445
e 117 446
e 117 447
e 117 452
e 117 455
e 117 774
e 118 130
e 118 139
e 118 160
e 118 174
e 118 205
e 118 216
e 118 219
e 118 243
e 118 257
e 118 273
e 118 279
e 118 281
e 118 303
e 118 313
e 118 314
e 118 321
e 118 325
e 118 337
e 118 345
e 118 352
e 118 362
e 118 368
e 118 376
e 118 402
e 118 404
e 118 405
e 118 444
e 118 445
e 119 131
e 119 132
e 119 138
e 119 234
e 119 277
e 119 279
e 119 305
e 119 317
e 119 321
e 119 338
e 119 348
e 119 354
e 119 371
e 119 378
e 119 397
e 119 410
e 119 423
e 119 447
e 119 450
e 120 142
e 120 217
e 120 218
e 120 222
e 120 231
e 120 276
e 120 282
e 120 283
e 120 307
e 120 310
e 120 329
e 120 330
e 120 339
e 120 350
e 120 365
e 120 374
e 120 403
e 120 407
e 120 416
e 120 427
e 120 447
e 121 189
e 121 199
e 121 209
e 121 258
e 121 286
e 121 337
e 121 338
e 121 350
e 121 354
e 121 391
e 121 399
e 121 422
e 121 457
e 121 479
e 121 480
e 121 513
e 121 530
e 121 543
e 121 546
e 121 551
e 121 577
e 121 599
e 121 607
e 121 618
e 121 620
e 121 623
e 121 629
e 121 638
e 121 648
e 121 662
e 121 682
e 121 684
e 121 708
e 121 724
e 121 734
e 121 747
e 121 753
e 121 766
e 121 778
e 122 123
e 122 200
e 122 201
e 122 207
e 122 209
e 122 217
e 122 222
e 122 234
e 122 236
e 122 264
e 122 266
e 122 267
e 122 270
e 122 272
e 122 276
e 122 307
e 122 325
e 122 328
e 122 347
e 122 356
e 122 357
e 122 406
e 122 416
e 123 200
e 123 201
e 123 207
e 123 209
e 123 217
e 123 222
e 123 234
e 123 236
e 123 264
e 123 266
e 123 267
e 123 270
e 123 272
e 123 276
e 123 307
e 123 325
e 123 328
e 123 347
e 123 356
e 123 357
e 123 406
e 123 416
e 124 131
e 124 179
e 124 189
e 124 195
e 124 203
e 124 209
e 124 213
e 124 222
e 124 236
e 124 265
e 124 268
e 124 269
e 124 280
e 124 283
e 124 286
e 124 292
e 124 308
e 124 309
e 124 320
e 124 325
e 124 329
e 124 360
e 124 362
e 124 374
e 124 403
e 124 420
e 124 422
e 124 424
e 124 433
e 124 437
e 124 450
e 124 454
e 125 126
e 125 130
e 125 131
e 125 136
e 125 138
e 125 141
e 125 142
e 125 143
e 125 147
e 125 152
e 125 153
e 125 160
e 125 161
e 125 163
e 125 165
e 125 172
e 125 174
e 125 179
e 125 187
e 125 188
e 125 189
e 125 192
e 125 195
e 125 196
e 125 198
e 125 199
e 125 200
e 125 201
e 125 202
e 125 203
e 125 206
e 125 207
e 125 208
e 125 209
e 125 210
e 125 211
e 125 215
e 125 217
e 125 220
e 125 222
e 125 223
e 125 231
e 125 232
e 125 234
e 125 236
e 125 240
e 125 241
e 125 243
e 125 244
e 125 245
e 125 247
e 125 248
e 125 250
e 125 254
e 125 255
e 125 256
e 125 259
e 125 265
e 125 268
e 125 272
e 125 276
e 125 279
e 125 280
e 125 282
e 125 283
e 125 286
e 125 288
e 125 289
e 125 290
e 125 292
e 125 293
e 125 297
e 125 302
e 125 308
e 125 309
e 125 310
e 125 311
e 125 320
e 125 321
e 125 323
e 125 325
e 125 326
e 125 328
e 125 329
e 125 333
e 125 335
e 125 337
e 125 340
e 125 343
e 125 347
e 125 356
e 125 357
e 125 359
e 125 360
e 125 362
e 125 365
e 125 367
e 125 368
e 125 370
e 125 372
e 125 374
e 125 375
e 125 376
e 125 377
e 125 378
e 125 379
e 125 380
e 125 392
e 125 398
e 125 399
e 125 401
e 125 405
e 125 406
e 125 412
e 125 413
e 125 416
e 125 419
e 125 420
e 125 422
e 125 423
e 125 424
e 125 426
e 125 427
e 125 433
e 125 434
e 125 435
e 125 436
e 125 437
e 125 438
e 125 440
e 125 441
e 125 442
e 125 446
e 125 447
e 125 448
e 125 449
e 125 450
e 125 451
e 125 454
e 125 455
e 125 774
e 126 128
e 126 136
e 126 138
e 126 139
e 126 142
e 126 152
e 126 153
e 126 160
e 126 161
e 126 164
e 126 165
e 126 166
e 126 169
e 126 172
e 126 174
e 126 178
e 126 179
e 126 187
e 126 189
e 126 192
e 126 196
e 126 199
e 126 200
e 126 203
e 126 208
e 126 209
e 126 210
e 126 216
e 126 217
e 126 218
e 126 220
e 126 225
e 126 226
e 126 232
e 126 236
e 126 246
e 126 247
e 126 248
e 126 250
e 126 251
e 126 254
e 126 257
e 126 259
e 126 260
e 126 263
e 126 265
e 126 272
e 126 276
e 126 280
e 126 281
e 126 283
e 126 285
e 126 286
e 126 289
e 126 291
e 126 304
e 126 305
e 126 307
e 126 311
e 126 312
e 126 314
e 126 315
e 126 319
e 126 320
e 126 327
e 126 328
e 126 329
e 126 333
e 126 338
e 126 341
e 126 345
e 126 350
e 126 351
e 126 352
e 126 354
e 126 355
e 126 357
e 126 361
e 126 362
e 126 369
e 126 371
e 126 373
e 126 374
e 126 376
e 126 382
e 126 383
e 126 384
e 126 388
e 126 391
e 126 399
e 126 405
e 126 406
e 126 413
e 126 415
e 126 416
e 126 418
e 126 422
e 126 425
e 126 426
e 126 428
e 126 432
e 126 434
e 126 435
e 126 436
e 126 437
e 126 438
e 126 441
e 126 445
e 126 447
e 126 449
e 126 450
e 126 457
e 126 460
e 126 471
e 126 475
e 126 478
e 126 479
e 126 480
e 126 481
e 126 484
e 126 493
e 126 498
e 126 501
e 126 502
e 126 508
e 126 513
e 126 515
e 126 516
e 126 517
e 126 521
e 126 530
e 126 537
e 126 546
e 126 551
e 126 556
e 126 560
e 126 561
e 126 568
e 126 580
e 126 581
e 126 582
e 126 584
e 126 590
e 126 599
e 126 607
e 126 610
e 126 617
e 126 618
e 126 619
e 126 620
e 126 621
e 126 623
e 126 628
e 126 629
e 126 630
e 126 631
e 126 634
e 126 638
e 126 645
e 126 646
e 126 647
e 126 648
e 126 651
e 126 662
e 126 673
e 126 678
e 126 681
e 126 682
e 126 686
e 126 688
e 126 691
e 126 696
e 126 697
e 126 700
e 126 707
e 126 710
e 126 716
e 126 720
e 126 725
e 126 730
e 126 731
e 126 732
e 126 734
e 126 739
e 126 741
e 126 745
e 126 750
e 126 766
e 126 769
e 126 774
e 127 132
e 127 138
e 127 159
e 127 174
e 127 189
e 127 201
e 127 205
e 127 209
e 127 213
e 127 249
e 127 251
e 127 252
e 127 277
e 127 279
e 127 286
e 127 305
e 127 321
e 127 325
e 127 337
e 127 338
e 127 354
e 127 362
e 127 368
e 127 389
e 127 402
e 127 420
e 127 422
e 127 423
e 127 455
e 128 129
e 128 130
e 128 131
e 128 133
e 128 139
e 128 147
e 128 151
e 128 152
e 128 153
e 128 156
e 128 159
e 128 161
e 128 163
e 128 164
e 128 165
e 128 166
e 128 169
e 128 172
e 128 174
e 128 178
e 128 180
e 128 186
e 128 189
e 128 191
e 128 194
e 128 195
e 128 196
e 128 197
e 128 200
e 128 201
e 128 203
e 128 205
e 128 207
e 128 208
e 128 209
e 128 213
e 128 215
e 128 216
e 128 217
e 128 219
e 128 220
e 128 222
e 128 225
e 128 227
e 128 229
e 128 234
e 128 239
e 128 240
e 128 241
e 128 245
e 128 249
e 128 253
e 128 254
e 128 255
e 128 256
e 128 257
e 128 263
e 128 271
e 128 272
e 128 273
e 128 277
e 128 278
e 128 279
e 128 280
e 128 283
e 128 285
e 128 286
e 128 287
e 128 289
e 128 291
e 128 292
e 128 293
e 128 294
e 128 295
e 128 299
e 128 300
e 128 305
e 128 313
e 128 314
e 128 315
e 128 318
e 128 319
e 128 320
e 128 321
e 128 322
e 128 325
e 128 329
e 128 331
e 128 332
e 128 333
e 128 338
e 128 345
e 128 346
e 128 347
e 128 354
e 128 362
e 128 363
e 128 364
e 128 366
e 128 373
e 128 376
e 128 382
e 128 385
e 128 387
e 128 390
e 128 391
e 128 394
e 128 395
e 128 396
e 128 402
e 128 404
e 128 407
e 128 408
e 128 409
e 128 413
e 128 415
e 128 423
e 128 424
e 128 425
e 128 428
e 128 429
e 128 430
e 128 434
e 128 438
e 128 442
e 128 446
e 128 448
e 129 147
e 129 153
e 129 163
e 129 187
e 129 189
e 129 191
e 129 196
e 129 201
e 129 208
e 129 216
e 129 217
e 129 222
e 129 225
e 129 229
e 129 239
e 129 240
e 129 241
e 129 254
e 129 256
e 129 257
e 129 263
e 129 273
e 129 275
e 129 277
e 129 292
e 129 301
e 129 303
e 129 315
e 129 325
e 129 332
e 129 337
e 129 344
e 129 345
e 129 351
e 129 352
e 129 354
e 129 376
e 129 393
e 130 131
e 130 132
e 130 133
e 130 134
e 130 138
e 130 139
e 130 140
e 130 142
e 130 143
e 130 146
e 130 151
e 130 152
e 130 153
e 130 154
e 130 155
e 130 156
e 130 157
e 130 159
e 130 160
e 130 161
e 130 163
e 130 164
e 130 165
e 130 174
e 130 175
e 130 179
e 130 180
e 130 182
e 130 184
e 130 188
e 130 189
e 130 195
e 130 196
e 130 197
e 130 198
e 130 200
e 130 201
e 130 203
e 130 205
e 130 207
e 130 208
e 130 209
e 130 212
e 130 213
e 130 215
e 130 216
e 130 217
e 130 219
e 130 222
e 130 223
e 130 224
e 130 225
e 130 227
e 130 228
e 130 234
e 130 235
e 130 236
e 130 240
e 130 241
e 130 242
e 130 243
e 130 244
e 130 245
e 130 249
e 130 253
e 130 254
e 130 256
e 130 257
e 130 260
e 130 265
e 130 267
e 130 268
e 130 272
e 130 273
e 130 277
e 130 279
e 130 280
e 130 281
e 130 283
e 130 284
e 130 285
e 130 286
e 130 287
e 130 288
e 130 289
e 130 291
e 130 293
e 130 294
e 130 296
e 130 298
e 130 299
e 130 300
e 130 301
e 130 302
e 130 303
e 130 304
e 130 305
e 130 306
e 130 310
e 130 313
e 130 314
e 130 316
e 130 317
e 130 318
e 130 319
e 130 320
e 130 321
e 130 322
e 130 323
e 130 325
e 130 326
e 130 329
e 130 335
e 130 336
e 130 337
e 130 338
e 130 345
e 130 346
e 130 347
e 130 349
e 130 352
e 130 354
e 130 355
e 130 357
e 130 362
e 130 365
e 130 366
e 130 367
e 130 368
e 130 372
e 130 373
e 130 375
e 130 376
e 130 377
e 130 378
e 130 379
e 130 381
e 130 382
e 130 384
e 130 385
e 130 394
e 130 395
e 130 396
e 130 398
e 130 399
e 130 401
e 130 402
e 130 404
e 130 405
e 130 407
e 130 408
e 130 409
e 130 412
e 130 413
e 130 415
e 130 417
e 130 418
e 130 419
e 130 420
e 130 422
e 130 423
e 130 424
e 130 425
e 130 427
e 130 429
e 130 430
e 130 433
e 130 434
e 130 435
e 130 436
e 130 437
e 130 438
e 130 439
e 130 440
e 130 442
e 130 443
e 130 444
e 130 445
e 130 446
e 130 448
e 130 449
e 130 451
e 130 452
e 130 454
e 130 455
e 130 456
e 130 774
e 131 132
e 131 133
e 131 136
e 131 138
e 131 139
e 131 141
e 131 142
e 131 143
e 131 144
e 131 146
e 131 149
e 131 150
e 131 153
e 131 154
e 131 155
e 131 156
e 131 159
e 131 160
e 131 161
e 131 163
e 131 164
e 131 165
e 131 173
e 131 174
e 131 175
e 131 176
e 131 177
e 131 178
e 131 179
e 131 182
e 131 185
e 131 186
e 131 187
e 131 188
e 131 189
e 131 190
e 131 192
e 131 195
e 131 196
e 131 198
e 131 199
e 131 200
e 131 201
e 131 203
e 131 205
e 131 207
e 131 208
e 131 209
e 131 210
e 131 211
e 131 213
e 131 215
e 131 216
e 131 217
e 131 218
e 131 220
e 131 221
e 131 222
e 131 223
e 131 226
e 131 228
e 131 232
e 131 233
e 131 234
e 131 235
e 131 236
e 131 237
e 131 238
e 131 240
e 131 242
e 131 243
e 131 244
e 131 246
e 131 247
e 131 249
e 131 250
e 131 251
e 131 253
e 131 254
e 131 255
e 131 256
e 131 257
e 131 258
e 131 259
e 131 260
e 131 261
e 131 262
e 131 264
e 131 265
e 131 266
e 131 267
e 131 268
e 131 269
e 131 270
e 131 271
e 131 272
e 131 275
e 131 276
e 131 277
e 131 279
e 131 280
e 131 283
e 131 284
e 131 285
e 131 286
e 131 288
e 131 289
e 131 291
e 131 292
e 131 295
e 131 296
e 131 297
e 131 298
e 131 299
e 131 300
e 131 302
e 131 304
e 131 305
e 131 307
e 131 308
e 131 309
e 131 310
e 131 311
e 131 312
e 131 317
e 131 318
e 131 319
e 131 320
e 131 321
e 131 323
e 131 325
e 131 326
e 131 327
e 131 328
e 131 329
e 131 330
e 131 331
e 131 333
e 131 334
e 131 335
e 131 336
e 131 337
e 131 338
e 131 339
e 131 340
e 131 342
e 131 345
e 131 346
e 131 347
e 131 348
e 131 349
e 131 350
e 131 354
e 131 355
e 131 357
e 131 358
e 131 359
e 131 360
e 131 362
e 131 363
e 131 364
e 131 365
e 131 366
e 131 367
e 131 368
e 131 370
e 131 371
e 131 372
e 131 373
e 131 374
e 131 376
e 131 377
e 131 378
e 131 380
e 131 382
e 131 384
e 131 385
e 131 386
e 131 389
e 131 390
e 131 391
e 131 392
e 131 397
e 131 398
e 131 399
e 131 400
e 131 401
e 131 402
e 131 403
e 131 404
e 131 405
e 131 406
e 131 407
e 131 408
e 131 409
e 131 410
e 131 411
e 131 412
e 131 413
e 131 414
e 131 415
e 131 416
e 131 419
e 131 420
e 131 421
e 131 422
e 131 423
e 131 424
e 131 426
e 131 427
e 131 428
e 131 432
e 131 433
e 131 435
e 131 436
e 131 437
e 131 438
e 131 439
e 131 440
e 131 442
e 131 443
e 131 446
e 131 447
e 131 448
e 131 449
e 131 450
e 131 451
e 131 452
e 131 454
e 131 455
e 131 456
e 131 457
e 131 460
e 131 461
e 131 462
e 131 467
e 131 474
e 131 475
e 131 477
e 131 478
e 131 479
e 131 480
e 131 481
e 131 483
e 131 484
e 131 485
e 131 486
e 131 488
e 131 489
e 131 491
e 131 502
e 131 505
e 131 509
e 131 510
e 131 511
e 131 512
e 131 513
e 131 514
e 131 515
e 131 516
e 131 518
e 131 521
e 131 522
e 131 530
e 131 537
e 131 540
e 131 545
e 131 546
e 131 547
e 131 551
e 131 552
e 131 554
e 131 555
e 131 558
e 131 564
e 131 565
e 131 568
e 131 570
e 131 571
e 131 577
e 131 578
e 131 579
e 131 581
e 131 582
e 131 583
e 131 586
e 131 590
e 131 593
e 131 596
e 131 599
e 131 603
e 131 607
e 131 610
e 131 615
e 131 617
e 131 621
e 131 623
e 131 627
e 131 633
e 131 636
e 131 639
e 131 640
e 131 641
e 131 642
e 131 643
e 131 644
e 131 645
e 131 646
e 131 648
e 131 651
e 131 652
e 131 653
e 131 654
e 131 656
e 131 657
e 131 658
e 131 662
e 131 663
e 131 664
e 131 665
e 131 667
e 131 671
e 131 673
e 131 679
e 131 680
e 131 681
e 131 682
e 131 684
e 131 690
e 131 695
e 131 696
e 131 702
e 131 705
e 131 707
e 131 709
e 131 710
e 131 711
e 131 714
e 131 715
e 131 716
e 131 717
e 131 718
e 131 719
e 131 721
e 131 731
e 131 734
e 131 736
e 131 739
e 131 740
e 131 742
e 131 743
e 131 747
e 131 748
e 131 753
e 131 754
e 131 755
e 131 759
e 131 761
e 131 762
e 131 765
e 131 769
e 131 772
e 131 773
e 131 774
e 131 775
e 131 778
e 132 133
e 132 134
e 132 138
e 132 140
e 132 142
e 132 151
e 132 152
e 132 153
e 132 159
e 132 161
e 132 163
e 132 170
e 132 174
e 132 177
e 132 179
e 132 181
e 132 187
e 132 189
e 132 195
e 132 196
e 132 198
e 132 200
e 132 201
e 132 203
e 132 205
e 132 208
e 132 209
e 132 212
e 132 213
e 132 215
e 132 216
e 132 217
e 132 219
e 132 220
e 132 222
e 132 223
e 132 225
e 132 227
e 132 232
e 132 234
e 132 236
e 132 240
e 132 241
e 132 242
e 132 243
e 132 245
e 132 248
e 132 249
e 132 251
e 132 252
e 132 254
e 132 257
e 132 265
e 132 273
e 132 275
e 132 277
e 132 279
e 132 280
e 132 285
e 132 286
e 132 288
e 132 289
e 132 298
e 132 305
e 132 310
e 132 313
e 132 317
e 132 318
e 132 320
e 132 321
e 132 325
e 132 326
e 132 327
e 132 329
e 132 330
e 132 333
e 132 334
e 132 335
e 132 336
e 132 337
e 132 338
e 132 342
e 132 345
e 132 347
e 132 348
e 132 349
e 132 351
e 132 354
e 132 355
e 132 359
e 132 362
e 132 363
e 132 364
e 132 368
e 132 371
e 132 373
e 132 377
e 132 378
e 132 380
e 132 382
e 132 383
e 132 384
e 132 386
e 132 388
e 132 389
e 132 394
e 132 395
e 132 396
e 132 397
e 132 398
e 132 399
e 132 401
e 132 402
e 132 405
e 132 406
e 132 407
e 132 409
e 132 410
e 132 412
e 132 414
e 132 419
e 132 420
e 132 422
e 132 423
e 132 427
e 132 429
e 132 430
e 132 435
e 132 437
e 132 438
e 132 439
e 132 440
e 132 441
e 132 443
e 132 444
e 132 445
e 132 446
e 132 447
e 132 448
e 132 449
e 132 450
e 132 451
e 132 455
e 132 774
e 133 138
e 133 139
e 133 142
e 133 155
e 133 156
e 133 163
e 133 177
e 133 195
e 133 198
e 133 203
e 133 208
e 133 215
e 133 222
e 133 240
e 133 245
e 133 249
e 133 271
e 133 277
e 133 280
e 133 285
e 133 299
e 133 300
e 133 301
e 133 313
e 133 320
e 133 321
e 133 325
e 133 327
e 133 329
e 133 335
e 133 346
e 133 347
e 133 354
e 133 362
e 133 364
e 133 373
e 133 379
e 133 380
e 133 381
e 133 382
e 133 384
e 133 391
e 133 404
e 133 408
e 133 409
e 133 415
e 133 419
e 133 428
e 133 435
e 133 437
e 133 439
e 133 446
e 134 138
e 134 151
e 134 161
e 134 194
e 134 195
e 134 208
e 134 214
e 134 222
e 134 227
e 134 240
e 134 242
e 134 245
e 134 277
e 134 286
e 134 325
e 134 338
e 134 347
e 134 354
e 134 366
e 134 417
e 134 428
e 135 138
e 135 165
e 135 187
e 135 189
e 135 191
e 135 201
e 135 209
e 135 222
e 135 240
e 135 241
e 135 243
e 135 245
e 135 256
e 135 260
e 135 274
e 135 275
e 135 277
e 135 278
e 135 280
e 135 284
e 135 292
e 135 317
e 135 325
e 135 336
e 135 344
e 135 376
e 135 377
e 135 435
e 135 442
e 136 137
e 136 142
e 136 144
e 136 163
e 136 189
e 136 192
e 136 196
e 136 200
e 136 209
e 136 210
e 136 217
e 136 232
e 136 236
e 136 243
e 136 247
e 136 248
e 136 249
e 136 250
e 136 256
e 136 259
e 136 276
e 136 277
e 136 280
e 136 283
e 136 289
e 136 311
e 136 315
e 136 320
e 136 325
e 136 328
e 136 329
e 136 353
e 136 374
e 136 392
e 136 402
e 136 406
e 136 416
e 136 418
e 136 426
e 136 437
e 136 447
e 136 449
e 136 450
e 137 163
e 137 196
e 137 209
e 137 243
e 137 256
e 137 280
e 137 283
e 137 289
e 137 315
e 137 325
e 137 353
e 137 418
e 138 139
e 138 140
e 138 141
e 138 142
e 138 143
e 138 146
e 138 151
e 138 155
e 138 156
e 138 157
e 138 159
e 138 160
e 138 161
e 138 163
e 138 165
e 138 174
e 138 175
e 138 176
e 138 185
e 138 186
e 138 187
e 138 189
e 138 191
e 138 192
e 138 195
e 138 196
e 138 198
e 138 200
e 138 201
e 138 203
e 138 205
e 138 207
e 138 208
e 138 209
e 138 210
e 138 211
e 138 212
e 138 213
e 138 215
e 138 217
e 138 218
e 138 220
e 138 222
e 138 223
e 138 226
e 138 227
e 138 228
e 138 229
e 138 230
e 138 231
e 138 234
e 138 236
e 138 237
e 138 240
e 138 241
e 138 242
e 138 243
e 138 244
e 138 245
e 138 246
e 138 248
e 138 249
e 138 251
e 138 252
e 138 254
e 138 255
e 138 256
e 138 260
e 138 262
e 138 265
e 138 267
e 138 272
e 138 274
e 138 275
e 138 277
e 138 278
e 138 279
e 138 280
e 138 283
e 138 284
e 138 285
e 138 286
e 138 287
e 138 289
e 138 290
e 138 291
e 138 292
e 138 293
e 138 295
e 138 297
e 138 298
e 138 299
e 138 300
e 138 301
e 138 302
e 138 304
e 138 305
e 138 306
e 138 310
e 138 311
e 138 312
e 138 313
e 138 316
e 138 317
e 138 318
e 138 319
e 138 320
e 138 321
e 138 323
e 138 324
e 138 325
e 138 326
e 138 327
e 138 329
e 138 333
e 138 335
e 138 336
e 138 337
e 138 338
e 138 343
e 138 344
e 138 347
e 138 348
e 138 349
e 138 350
e 138 354
e 138 355
e 138 356
e 138 357
e 138 359
e 138 360
e 138 362
e 138 366
e 138 367
e 138 368
e 138 371
e 138 372
e 138 373
e 138 375
e 138 376
e 138 377
e 138 378
e 138 379
e 138 381
e 138 384
e 138 386
e 138 389
e 138 391
e 138 397
e 138 399
e 138 401
e 138 402
e 138 404
e 138 409
e 138 410
e 138 412
e 138 417
e 138 418
e 138 419
e 138 420
e 138 422
e 138 423
e 138 424
e 138 427
e 138 428
e 138 432
e 138 435
e 138 436
e 138 437
e 138 438
e 138 439
e 138 440
e 138 442
e 138 443
e 138 446
e 138 447
e 138 448
e 138 449
e 138 450
e 138 451
e 138 452
e 138 455
e 138 456
e 138 478
e 138 479
e 138 480
e 138 502
e 138 508
e 138 513
e 138 515
e 138 516
e 138 537
e 138 568
e 138 599
e 138 618
e 138 619
e 138 621
e 138 645
e 138 648
e 138 662
e 138 688
e 138 696
e 138 700
e 138 707
e 138 710
e 138 720
e 138 725
e 138 732
e 139 146
e 139 153
e 139 154
e 139 155
e 139 156
e 139 159
e 139 160
e 139 161
e 139 164
e 139 165
e 139 166
e 139 169
e 139 172
e 139 174
e 139 177
e 139 178
e 139 179
e 139 189
e 139 195
e 139 196
e 139 198
e 139 200
e 139 203
e 139 205
e 139 208
e 139 209
e 139 213
e 139 216
e 139 217
e 139 219
e 139 222
e 139 225
e 139 228
e 139 239
e 139 240
e 139 242
e 139 243
e 139 245
e 139 246
e 139 249
e 139 253
e 139 254
e 139 255
e 139 256
e 139 257
e 139 263
e 139 267
e 139 272
e 139 273
e 139 275
e 139 277
e 139 279
e 139 280
e 139 281
e 139 283
e 139 284
e 139 289
e 139 291
e 139 292
e 139 298
e 139 299
e 139 300
e 139 301
e 139 303
e 139 305
e 139 313
e 139 314
e 139 315
e 139 319
e 139 320
e 139 321
e 139 325
e 139 333
e 139 335
e 139 337
e 139 345
e 139 349
e 139 352
e 139 354
e 139 355
e 139 362
e 139 368
e 139 370
e 139 373
e 139 375
e 139 376
e 139 379
e 139 381
e 139 382
e 139 399
e 139 402
e 139 404
e 139 405
e 139 412
e 139 413
e 139 415
e 139 417
e 139 425
e 139 438
e 139 444
e 139 445
e 139 451
e 140 196
e 140 212
e 140 215
e 140 222
e 140 240
e 140 277
e 140 280
e 140 310
e 140 325
e 140 336
e 140 354
e 140 402
e 140 409
e 140 419
e 140 435
e 140 440
e 140 443
e 141 142
e 141 156
e 141 160
e 141 187
e 141 189
e 141 198
e 141 199
e 141 201
e 141 203
e 141 208
e 141 216
e 141 218
e 141 222
e 141 231
e 141 238
e 141 243
e 141 244
e 141 245
e 141 255
e 141 257
e 141 273
e 141 280
e 141 286
e 141 293
e 141 298
e 141 310
e 141 312
e 141 320
e 141 323
e 141 329
e 141 333
e 141 335
e 141 338
e 141 347
e 141 354
e 141 357
e 141 359
e 141 360
e 141 362
e 141 373
e 141 376
e 141 381
e 141 382
e 141 383
e 141 400
e 141 402
e 141 410
e 141 411
e 141 419
e 141 421
e 141 427
e 141 428
e 141 432
e 141 435
e 141 436
e 141 438
e 141 446
e 141 461
e 141 470
e 141 477
e 141 479
e 141 486
e 141 502
e 141 505
e 141 513
e 141 514
e 141 516
e 141 528
e 141 530
e 141 537
e 141 545
e 141 546
e 141 551
e 141 570
e 141 571
e 141 577
e 141 578
e 141 579
e 141 580
e 141 581
e 141 593
e 141 599
e 141 640
e 141 647
e 141 648
e 141 651
e 141 679
e 141 680
e 141 681
e 141 682
e 141 690
e 141 692
e 141 696
e 141 699
e 141 702
e 141 706
e 141 710
e 141 712
e 141 714
e 141 717
e 141 718
e 141 723
e 141 748
e 141 755
e 141 757
e 141 759
e 141 761
e 142 143
e 142 144
e 142 152
e 142 156
e 142 160
e 142 161
e 142 163
e 142 165
e 142 172
e 142 174
e 142 175
e 142 177
e 142 178
e 142 179
e 142 189
e 142 190
e 142 192
e 142 195
e 142 196
e 142 198
e 142 199
e 142 200
e 142 203
e 142 204
e 142 205
e 142 207
e 142 208
e 142 209
e 142 210
e 142 211
e 142 212
e 142 215
e 142 216
e 142 217
e 142 218
e 142 220
e 142 222
e 142 223
e 142 231
e 142 232
e 142 234
e 142 236
e 142 238
e 142 240
e 142 241
e 142 242
e 142 244
e 142 245
e 142 246
e 142 247
e 142 248
e 142 249
e 142 250
e 142 251
e 142 254
e 142 255
e 142 257
e 142 258
e 142 259
e 142 260
e 142 261
e 142 265
e 142 266
e 142 267
e 142 271
e 142 272
e 142 273
e 142 275
e 142 276
e 142 277
e 142 279
e 142 280
e 142 282
e 142 283
e 142 285
e 142 286
e 142 289
e 142 290
e 142 293
e 142 297
e 142 298
e 142 302
e 142 304
e 142 307
e 142 308
e 142 309
e 142 310
e 142 311
e 142 312
e 142 316
e 142 317
e 142 319
e 142 320
e 142 321
e 142 322
e 142 323
e 142 325
e 142 326
e 142 327
e 142 328
e 142 329
e 142 330
e 142 334
e 142 335
e 142 336
e 142 338
e 142 339
e 142 340
e 142 341
e 142 342
e 142 343
e 142 347
e 142 349
e 142 350
e 142 352
e 142 353
e 142 354
e 142 355
e 142 356
e 142 357
e 142 361
e 142 362
e 142 363
e 142 364
e 142 365
e 142 367
e 142 368
e 142 369
e 142 370
e 142 372
e 142 373
e 142 374
e 142 375
e 142 377
e 142 378
e 142 379
e 142 380
e 142 381
e 142 382
e 142 383
e 142 384
e 142 388
e 142 389
e 142 391
e 142 392
e 142 398
e 142 399
e 142 400
e 142 402
e 142 403
e 142 405
e 142 406
e 142 407
e 142 409
e 142 410
e 142 412
e 142 413
e 142 414
e 142 416
e 142 417
e 142 419
e 142 420
e 142 421
e 142 422
e 142 424
e 142 426
e 142 427
e 142 432
e 142 433
e 142 434
e 142 435
e 142 436
e 142 437
e 142 438
e 142 439
e 142 440
e 142 441
e 142 442
e 142 443
e 142 444
e 142 446
e 142 447
e 142 448
e 142 449
e 142 450
e 142 455
e 142 456
e 142 460
e 142 461
e 142 467
e 142 469
e 142 470
e 142 471
e 142 472
e 142 473
e 142 475
e 142 476
e 142 477
e 142 478
e 142 479
e 142 480
e 142 482
e 142 484
e 142 485
e 142 486
e 142 489
e 142 491
e 142 496
e 142 497
e 142 498
e 142 499
e 142 502
e 142 505
e 142 513
e 142 514
e 142 515
e 142 516
e 142 518
e 142 521
e 142 522
e 142 528
e 142 530
e 142 535
e 142 537
e 142 538
e 142 541
e 142 542
e 142 545
e 142 546
e 142 548
e 142 551
e 142 556
e 142 568
e 142 570
e 142 571
e 142 577
e 142 578
e 142 579
e 142 580
e 142 581
e 142 582
e 142 588
e 142 590
e 142 593
e 142 603
e 142 604
e 142 607
e 142 608
e 142 616
e 142 621
e 142 622
e 142 624
e 142 625
e 142 626
e 142 628
e 142 629
e 142 630
e 142 631
e 142 632
e 142 633
e 142 634
e 142 635
e 142 640
e 142 642
e 142 644
e 142 646
e 142 647
e 142 648
e 142 651
e 142 654
e 142 655
e 142 659
e 142 662
e 142 670
e 142 671
e 142 672
e 142 673
e 142 674
e 142 677
e 142 678
e 142 680
e 142 681
e 142 682
e 142 684
e 142 686
e 142 687
e 142 690
e 142 691
e 142 692
e 142 693
e 142 696
e 142 699
e 142 702
e 142 706
e 142 707
e 142 708
e 142 709
e 142 710
e 142 711
e 142 712
e 142 713
e 142 717
e 142 718
e 142 723
e 142 724
e 142 731
e 142 734
e 142 735
e 142 736
e 142 738
e 142 740
e 142 741
e 142 742
e 142 744
e 142 745
e 142 746
e 142 747
e 142 750
e 142 754
e 142 755
e 142 756
e 142 757
e 142 758
e 142 759
e 142 760
e 142 761
e 142 762
e 142 763
e 142 768
e 142 769
e 142 774
e 142 775
e 142 777
e 143 160
e 143 163
e 143 165
e 143 208
e 143 209
e 143 223
e 143 280
e 143 302
e 143 326
e 143 362
e 143 367
e 143 368
e 143 372
e 143 377
e 143 378
e 143 422
e 143 437
e 143 438
e 143 440
e 143 446
e 143 449
e 144 189
e 144 200
e 144 232
e 144 247
e 144 249
e 144 250
e 144 276
e 144 277
e 144 283
e 144 311
e 144 320
e 144 328
e 144 329
e 144 374
e 144 392
e 144 402
e 144 416
e 144 426
e 144 437
e 144 447
e 144 449
e 144 450
e 145 161
e 145 174
e 145 189
e 145 193
e 145 214
e 145 220
e 145 224
e 145 245
e 145 249
e 145 254
e 145 265
e 145 272
e 145 280
e 145 285
e 145 286
e 145 306
e 145 317
e 145 321
e 145 331
e 145 335
e 145 362
e 145 364
e 145 387
e 145 390
e 145 417
e 145 435
e 145 442
e 145 452
e 145 454
e 145 456
e 146 154
e 146 156
e 146 159
e 146 165
e 146 179
e 146 189
e 146 198
e 146 200
e 146 201
e 146 205
e 146 208
e 146 209
e 146 222
e 146 223
e 146 228
e 146 240
e 146 242
e 146 243
e 146 253
e 146 254
e 146 256
e 146 260
e 146 267
e 146 274
e 146 275
e 146 277
e 146 278
e 146 280
e 146 284
e 146 291
e 146 292
e 146 298
e 146 299
e 146 300
e 146 317
e 146 319
e 146 325
e 146 335
e 146 349
e 146 368
e 146 376
e 146 377
e 146 399
e 146 404
e 146 442
e 146 451
e 147 152
e 147 153
e 147 163
e 147 165
e 147 174
e 147 187
e 147 196
e 147 199
e 147 200
e 147 201
e 147 202
e 147 208
e 147 215
e 147 216
e 147 217
e 147 222
e 147 225
e 147 229
e 147 239
e 147 240
e 147 241
e 147 243
e 147 244
e 147 245
e 147 254
e 147 257
e 147 263
e 147 273
e 147 275
e 147 278
e 147 280
e 147 289
e 147 290
e 147 292
e 147 301
e 147 303
e 147 315
e 147 325
e 147 326
e 147 329
e 147 332
e 147 335
e 147 337
e 147 343
e 147 344
e 147 345
e 147 351
e 147 352
e 147 354
e 147 363
e 147 372
e 147 376
e 147 387
e 147 393
e 147 405
e 147 436
e 147 442
e 147 446
e 147 448
e 148 164
e 148 165
e 148 180
e 148 183
e 148 195
e 148 196
e 148 200
e 148 201
e 148 219
e 148 230
e 148 254
e 148 257
e 148 272
e 148 280
e 148 285
e 148 287
e 148 293
e 148 294
e 148 305
e 148 321
e 148 322
e 148 333
e 148 347
e 148 382
e 148 402
e 148 424
e 148 425
e 148 450
e 149 186
e 149 200
e 149 217
e 149 234
e 149 277
e 149 305
e 149 317
e 149 338
e 149 348
e 149 362
e 149 368
e 149 371
e 149 378
e 149 397
e 149 410
e 149 423
e 149 456
e 150 192
e 150 200
e 150 259
e 150 280
e 150 392
e 150 406
e 150 422
e 151 156
e 151 161
e 151 165
e 151 194
e 151 195
e 151 197
e 151 200
e 151 208
e 151 213
e 151 216
e 151 222
e 151 227
e 151 240
e 151 242
e 151 245
e 151 249
e 151 272
e 151 277
e 151 283
e 151 285
e 151 289
e 151 293
e 151 294
e 151 318
e 151 321
e 151 325
e 151 338
e 151 346
e 151 354
e 151 385
e 151 413
e 151 415
e 152 156
e 152 160
e 152 163
e 152 165
e 152 174
e 152 179
e 152 186
e 152 189
e 152 196
e 152 199
e 152 200
e 152 201
e 152 202
e 152 203
e 152 205
e 152 207
e 152 208
e 152 209
e 152 213
e 152 215
e 152 218
e 152 220
e 152 222
e 152 225
e 152 231
e 152 237
e 152 240
e 152 241
e 152 243
e 152 244
e 152 245
e 152 249
e 152 254
e 152 257
e 152 258
e 152 260
e 152 262
e 152 267
e 152 272
e 152 273
e 152 277
e 152 279
e 152 280
e 152 283
e 152 289
e 152 290
e 152 304
e 152 307
e 152 309
e 152 310
e 152 313
e 152 318
e 152 319
e 152 321
e 152 325
e 152 326
e 152 327
e 152 329
e 152 330
e 152 335
e 152 336
e 152 338
e 152 339
e 152 341
e 152 343
e 152 345
e 152 347
e 152 349
e 152 355
e 152 357
e 152 361
e 152 362
e 152 367
e 152 369
e 152 370
e 152 372
e 152 373
e 152 376
e 152 378
e 152 380
e 152 381
e 152 382
e 152 384
e 152 388
e 152 394
e 152 395
e 152 396
e 152 402
e 152 405
e 152 407
e 152 409
e 152 416
e 152 417
e 152 419
e 152 429
e 152 430
e 152 434
e 152 436
e 152 437
e 152 441
e 152 446
e 152 448
e 153 161
e 153 163
e 153 164
e 153 165
e 153 166
e 153 169
e 153 172
e 153 174
e 153 178
e 153 179
e 153 181
e 153 187
e 153 188
e 153 189
e 153 195
e 153 196
e 153 200
e 153 201
e 153 203
e 153 207
e 153 208
e 153 209
e 153 213
e 153 216
e 153 217
e 153 220
e 153 222
e 153 223
e 153 225
e 153 229
e 153 236
e 153 239
e 153 241
e 153 243
e 153 244
e 153 249
e 153 251
e 153 254
e 153 257
e 153 263
e 153 265
e 153 268
e 153 272
e 153 273
e 153 275
e 153 279
e 153 280
e 153 283
e 153 286
e 153 289
e 153 292
e 153 301
e 153 303
e 153 305
e 153 314
e 153 315
e 153 318
e 153 320
e 153 321
e 153 325
e 153 326
e 153 333
e 153 335
e 153 337
e 153 338
e 153 344
e 153 345
e 153 349
e 153 351
e 153 352
e 153 362
e 153 365
e 153 368
e 153 376
e 153 377
e 153 378
e 153 383
e 153 386
e 153 393
e 153 398
e 153 399
e 153 401
e 153 402
e 153 405
e 153 406
e 153 408
e 153 413
e 153 415
e 153 423
e 153 425
e 153 427
e 153 433
e 153 435
e 153 437
e 153 438
e 153 439
e 153 441
e 153 442
e 153 444
e 153 445
e 153 450
e 153 451
e 153 454
e 153 455
e 153 774
e 154 155
e 154 156
e 154 159
e 154 165
e 154 177
e 154 179
e 154 198
e 154 200
e 154 205
e 154 208
e 154 209
e 154 228
e 154 240
e 154 242
e 154 246
e 154 253
e 154 254
e 154 256
e 154 267
e 154 275
e 154 277
e 154 280
e 154 284
e 154 291
e 154 292
e 154 298
e 154 299
e 154 300
e 154 319
e 154 325
e 154 335
e 154 349
e 154 368
e 154 370
e 154 399
e 154 404
e 154 451
e 155 156
e 155 165
e 155 177
e 155 179
e 155 189
e 155 195
e 155 198
e 155 208
e 155 209
e 155 222
e 155 228
e 155 242
e 155 245
e 155 246
e 155 254
e 155 256
e 155 272
e 155 275
e 155 277
e 155 280
e 155 291
e 155 292
e 155 299
e 155 300
e 155 301
e 155 313
e 155 319
e 155 320
e 155 321
e 155 325
e 155 354
e 155 355
e 155 370
e 155 373
e 155 375
e 155 379
e 155 381
e 155 404
e 155 412
e 155 417
e 156 159
e 156 160
e 156 161
e 156 164
e 156 165
e 156 171
e 156 172
e 156 174
e 156 179
e 156 180
e 156 189
e 156 192
e 156 194
e 156 195
e 156 196
e 156 197
e 156 198
e 156 199
e 156 200
e 156 203
e 156 204
e 156 205
e 156 207
e 156 208
e 156 209
e 156 211
e 156 213
e 156 215
e 156 216
e 156 218
e 156 219
e 156 220
e 156 222
e 156 227
e 156 228
e 156 236
e 156 238
e 156 240
e 156 242
e 156 244
e 156 245
e 156 246
e 156 249
e 156 251
e 156 253
e 156 254
e 156 256
e 156 257
e 156 258
e 156 262
e 156 267
e 156 269
e 156 271
e 156 272
e 156 273
e 156 275
e 156 277
e 156 280
e 156 283
e 156 284
e 156 285
e 156 286
e 156 287
e 156 289
e 156 291
e 156 293
e 156 294
e 156 297
e 156 298
e 156 299
e 156 300
e 156 301
e 156 304
e 156 305
e 156 307
e 156 308
e 156 310
e 156 313
e 156 317
e 156 318
e 156 319
e 156 320
e 156 321
e 156 322
e 156 325
e 156 329
e 156 330
e 156 335
e 156 338
e 156 339
e 156 341
e 156 345
e 156 346
e 156 347
e 156 349
e 156 350
e 156 352
e 156 354
e 156 355
e 156 356
e 156 368
e 156 369
e 156 371
e 156 373
e 156 374
e 156 375
e 156 377
e 156 379
e 156 381
e 156 382
e 156 385
e 156 391
e 156 392
e 156 399
e 156 401
e 156 402
e 156 404
e 156 407
e 156 408
e 156 409
e 156 411
e 156 412
e 156 413
e 156 415
e 156 417
e 156 420
e 156 421
e 156 424
e 156 425
e 156 426
e 156 427
e 156 428
e 156 432
e 156 436
e 156 437
e 156 438
e 156 442
e 156 444
e 156 446
e 156 449
e 156 451
e 156 461
e 156 462
e 156 467
e 156 470
e 156 473
e 156 475
e 156 477
e 156 479
e 156 480
e 156 484
e 156 485
e 156 486
e 156 491
e 156 496
e 156 498
e 156 502
e 156 505
e 156 513
e 156 514
e 156 515
e 156 516
e 156 527
e 156 530
e 156 537
e 156 539
e 156 545
e 156 551
e 156 566
e 156 571
e 156 577
e 156 578
e 156 581
e 156 582
e 156 583
e 156 587
e 156 588
e 156 590
e 156 599
e 156 604
e 156 607
e 156 612
e 156 615
e 156 616
e 156 620
e 156 621
e 156 625
e 156 626
e 156 632
e 156 633
e 156 635
e 156 639
e 156 641
e 156 642
e 156 644
e 156 647
e 156 648
e 156 651
e 156 654
e 156 655
e 156 662
e 156 663
e 156 670
e 156 674
e 156 677
e 156 680
e 156 681
e 156 682
e 156 684
e 156 686
e 156 690
e 156 691
e 156 692
e 156 693
e 156 696
e 156 702
e 156 704
e 156 705
e 156 706
e 156 707
e 156 708
e 156 712
e 156 714
e 156 718
e 156 723
e 156 724
e 156 731
e 156 734
e 156 736
e 156 738
e 156 740
e 156 742
e 156 744
e 156 745
e 156 746
e 156 750
e 156 751
e 156 753
e 156 754
e 156 755
e 156 756
e 156 757
e 156 761
e 156 762
e 156 765
e 156 768
e 156 773
e 156 774
e 156 775
e 156 777
e 157 165
e 157 175
e 157 189
e 157 198
e 157 203
e 157 208
e 157 209
e 157 216
e 157 222
e 157 223
e 157 236
e 157 245
e 157 249
e 157 256
e 157 258
e 157 267
e 157 273
e 157 293
e 157 304
e 157 310
e 157 316
e 157 321
e 157 323
e 157 329
e 157 337
e 157 347
e 157 354
e 157 357
e 157 368
e 157 376
e 157 382
e 157 391
e 157 412
e 157 417
e 157 418
e 157 419
e 157 435
e 157 438
e 157 448
e 157 461
e 157 475
e 157 486
e 157 516
e 157 567
e 157 569
e 157 570
e 157 571
e 157 573
e 157 576
e 157 577
e 157 581
e 157 632
e 157 680
e 157 684
e 157 694
e 157 726
e 157 734
e 158 159
e 158 160
e 158 162
e 158 163
e 158 165
e 158 167
e 158 168
e 158 171
e 158 173
e 158 174
e 158 200
e 158 203
e 158 208
e 158 209
e 158 243
e 158 255
e 158 256
e 158 273
e 158 303
e 158 319
e 158 325
e 158 337
e 158 344
e 158 352
e 158 393
e 158 402
e 158 404
e 159 160
e 159 162
e 159 163
e 159 164
e 159 165
e 159 167
e 159 168
e 159 171
e 159 173
e 159 174
e 159 179
e 159 189
e 159 195
e 159 196
e 159 198
e 159 200
e 159 201
e 159 203
e 159 205
e 159 208
e 159 209
e 159 213
e 159 216
e 159 217
e 159 222
e 159 223
e 159 228
e 159 234
e 159 236
e 159 240
e 159 242
e 159 243
e 159 245
e 159 248
e 159 249
e 159 251
e 159 252
e 159 253
e 159 254
e 159 255
e 159 256
e 159 260
e 159 267
e 159 273
e 159 274
e 159 275
e 159 277
e 159 278
e 159 279
e 159 280
e 159 283
e 159 284
e 159 286
e 159 289
e 159 291
e 159 292
e 159 298
e 159 299
e 159 300
e 159 303
e 159 305
e 159 317
e 159 318
e 159 319
e 159 321
e 159 325
e 159 335
e 159 337
e 159 338
e 159 344
e 159 346
e 159 347
e 159 349
e 159 352
e 159 354
e 159 362
e 159 368
e 159 376
e 159 377
e 159 382
e 159 389
e 159 393
e 159 399
e 159 402
e 159 404
e 159 413
e 159 415
e 159 420
e 159 422
e 159 423
e 159 424
e 159 425
e 159 442
e 159 451
e 159 455
e 160 162
e 160 163
e 160 165
e 160 167
e 160 168
e 160 171
e 160 173
e 160 174
e 160 178
e 160 179
e 160 186
e 160 187
e 160 189
e 160 195
e 160 196
e 160 198
e 160 199
e 160 200
e 160 201
e 160 203
e 160 204
e 160 205
e 160 208
e 160 209
e 160 210
e 160 216
e 160 217
e 160 218
e 160 219
e 160 220
e 160 222
e 160 223
e 160 224
e 160 226
e 160 231
e 160 236
e 160 237
e 160 238
e 160 240
e 160 243
e 160 244
e 160 245
e 160 246
e 160 249
e 160 251
e 160 254
e 160 255
e 160 256
e 160 257
e 160 258
e 160 260
e 160 262
e 160 265
e 160 266
e 160 267
e 160 269
e 160 271
e 160 272
e 160 273
e 160 276
e 160 279
e 160 280
e 160 281
e 160 282
e 160 283
e 160 285
e 160 286
e 160 289
e 160 290
e 160 291
e 160 297
e 160 298
e 160 300
e 160 302
e 160 303
e 160 304
e 160 305
e 160 307
e 160 308
e 160 309
e 160 310
e 160 312
e 160 313
e 160 314
e 160 316
e 160 318
e 160 319
e 160 320
e 160 321
e 160 325
e 160 326
e 160 327
e 160 329
e 160 330
e 160 333
e 160 337
e 160 338
e 160 341
e 160 343
e 160 344
e 160 345
e 160 347
e 160 349
e 160 350
e 160 352
e 160 353
e 160 355
e 160 356
e 160 357
e 160 361
e 160 362
e 160 364
e 160 365
e 160 367
e 160 368
e 160 369
e 160 370
e 160 371
e 160 372
e 160 373
e 160 374
e 160 376
e 160 377
e 160 378
e 160 380
e 160 381
e 160 382
e 160 383
e 160 384
e 160 386
e 160 388
e 160 391
e 160 393
e 160 399
e 160 400
e 160 402
e 160 404
e 160 405
e 160 406
e 160 410
e 160 411
e 160 416
e 160 421
e 160 422
e 160 423
e 160 427
e 160 428
e 160 432
e 160 434
e 160 435
e 160 436
e 160 437
e 160 438
e 160 439
e 160 440
e 160 441
e 160 442
e 160 444
e 160 445
e 160 446
e 160 447
e 160 448
e 160 449
e 160 451
e 160 455
e 160 456
e 160 457
e 160 458
e 160 459
e 160 460
e 160 461
e 160 462
e 160 467
e 160 469
e 160 470
e 160 471
e 160 473
e 160 475
e 160 476
e 160 477
e 160 478
e 160 479
e 160 480
e 160 481
e 160 484
e 160 485
e 160 486
e 160 487
e 160 488
e 160 489
e 160 490
e 160 491
e 160 492
e 160 496
e 160 497
e 160 498
e 160 499
e 160 500
e 160 501
e 160 502
e 160 503
e 160 504
e 160 505
e 160 506
e 160 509
e 160 510
e 160 511
e 160 512
e 160 513
e 160 514
e 160 515
e 160 516
e 160 518
e 160 520
e 160 521
e 160 523
e 160 524
e 160 526
e 160 527
e 160 530
e 160 535
e 160 537
e 160 538
e 160 539
e 160 541
e 160 542
e 160 545
e 160 546
e 160 547
e 160 550
e 160 551
e 160 552
e 160 556
e 160 558
e 160 562
e 160 563
e 160 564
e 160 565
e 160 566
e 160 568
e 160 570
e 160 571
e 160 575
e 160 577
e 160 578
e 160 579
e 160 581
e 160 582
e 160 583
e 160 584
e 160 586
e 160 587
e 160 590
e 160 593
e 160 594
e 160 596
e 160 599
e 160 603
e 160 606
e 160 607
e 160 608
e 160 609
e 160 610
e 160 611
e 160 612
e 160 614
e 160 615
e 160 616
e 160 617
e 160 618
e 160 619
e 160 620
e 160 621
e 160 622
e 160 623
e 160 624
e 160 625
e 160 626
e 160 627
e 160 628
e 160 629
e 160 630
e 160 631
e 160 633
e 160 634
e 160 636
e 160 639
e 160 640
e 160 641
e 160 642
e 160 643
e 160 644
e 160 646
e 160 647
e 160 648
e 160 649
e 160 651
e 160 652
e 160 654
e 160 656
e 160 657
e 160 658
e 160 659
e 160 661
e 160 662
e 160 663
e 160 664
e 160 665
e 160 668
e 160 670
e 160 671
e 160 672
e 160 673
e 160 675
e 160 677
e 160 678
e 160 679
e 160 680
e 160 681
e 160 682
e 160 684
e 160 686
e 160 687
e 160 688
e 160 690
e 160 691
e 160 692
e 160 695
e 160 696
e 160 698
e 160 699
e 160 701
e 160 702
e 160 703
e 160 706
e 160 707
e 160 709
e 160 710
e 160 711
e 160 712
e 160 713
e 160 714
e 160 715
e 160 716
e 160 717
e 160 718
e 160 719
e 160 721
e 160 723
e 160 727
e 160 728
e 160 729
e 160 731
e 160 732
e 160 733
e 160 734
e 160 735
e 160 736
e 160 737
e 160 738
e 160 739
e 160 740
e 160 741
e 160 742
e 160 743
e 160 744
e 160 745
e 160 746
e 160 747
e 160 749
e 160 750
e 160 751
e 160 752
e 160 754
e 160 755
e 160 756
e 160 758
e 160 759
e 160 760
e 160 761
e 160 763
e 160 764
e 160 765
e 160 767
e 160 768
e 160 769
e 160 770
e 160 771
e 160 772
e 160 773
e 160 774
e 160 775
e 160 776
e 160 777
e 160 778
e 161 163
e 161 164
e 161 165
e 161 166
e 161 169
e 161 172
e 161 174
e 161 175
e 161 176
e 161 178
e 161 179
e 161 181
e 161 182
e 161 184
e 161 186
e 161 187
e 161 189
e 161 193
e 161 195
e 161 196
e 161 200
e 161 201
e 161 203
e 161 207
e 161 208
e 161 209
e 161 211
e 161 213
e 161 214
e 161 215
e 161 216
e 161 217
e 161 220
e 161 222
e 161 223
e 161 224
e 161 225
e 161 227
e 161 232
e 161 233
e 161 234
e 161 235
e 161 236
e 161 237
e 161 240
e 161 241
e 161 242
e 161 244
e 161 245
e 161 249
e 161 254
e 161 256
e 161 257
e 161 258
e 161 260
e 161 263
e 161 265
e 161 268
e 161 271
e 161 272
e 161 273
e 161 275
e 161 277
e 161 278
e 161 280
e 161 283
e 161 284
e 161 285
e 161 286
e 161 288
e 161 289
e 161 295
e 161 296
e 161 297
e 161 298
e 161 301
e 161 305
e 161 306
e 161 310
e 161 313
e 161 314
e 161 315
e 161 317
e 161 319
e 161 320
e 161 321
e 161 322
e 161 324
e 161 325
e 161 327
e 161 329
e 161 330
e 161 331
e 161 332
e 161 333
e 161 334
e 161 335
e 161 336
e 161 337
e 161 338
e 161 341
e 161 342
e 161 344
e 161 345
e 161 347
e 161 350
e 161 354
e 161 359
e 161 362
e 161 363
e 161 364
e 161 365
e 161 366
e 161 368
e 161 369
e 161 375
e 161 376
e 161 377
e 161 378
e 161 379
e 161 381
e 161 382
e 161 385
e 161 387
e 161 390
e 161 391
e 161 393
e 161 398
e 161 401
e 161 405
e 161 406
e 161 407
e 161 408
e 161 409
e 161 413
e 161 414
e 161 415
e 161 417
e 161 422
e 161 423
e 161 425
e 161 428
e 161 433
e 161 435
e 161 438
e 161 442
e 161 443
e 161 444
e 161 447
e 161 449
e 161 450
e 161 451
e 161 452
e 161 454
e 161 455
e 161 456
e 161 774
e 162 163
e 162 165
e 162 167
e 162 168
e 162 171
e 162 173
e 162 174
e 162 200
e 162 203
e 162 208
e 162 209
e 162 243
e 162 255
e 162 256
e 162 273
e 162 303
e 162 319
e 162 325
e 162 337
e 162 344
e 162 352
e 162 393
e 162 402
e 162 404
e 163 165
e 163 167
e 163 168
e 163 170
e 163 171
e 163 173
e 163 174
e 163 175
e 163 177
e 163 178
e 163 179
e 163 181
e 163 187
e 163 189
e 163 191
e 163 193
e 163 195
e 163 196
e 163 198
e 163 199
e 163 200
e 163 201
e 163 202
e 163 203
e 163 208
e 163 209
e 163 215
e 163 216
e 163 217
e 163 219
e 163 220
e 163 222
e 163 223
e 163 224
e 163 225
e 163 228
e 163 229
e 163 231
e 163 239
e 163 240
e 163 241
e 163 242
e 163 243
e 163 244
e 163 245
e 163 249
e 163 251
e 163 254
e 163 255
e 163 256
e 163 257
e 163 260
e 163 263
e 163 265
e 163 267
e 163 272
e 163 273
e 163 275
e 163 276
e 163 277
e 163 280
e 163 283
e 163 285
e 163 286
e 163 289
e 163 290
e 163 292
e 163 293
e 163 301
e 163 302
e 163 303
e 163 304
e 163 305
e 163 306
e 163 309
e 163 313
e 163 315
e 163 316
e 163 317
e 163 318
e 163 319
e 163 320
e 163 323
e 163 324
e 163 325
e 163 326
e 163 327
e 163 329
e 163 332
e 163 333
e 163 335
e 163 336
e 163 337
e 163 338
e 163 342
e 163 343
e 163 344
e 163 345
e 163 347
e 163 349
e 163 351
e 163 352
e 163 353
e 163 354
e 163 355
e 163 361
e 163 362
e 163 363
e 163 364
e 163 365
e 163 367
e 163 368
e 163 370
e 163 372
e 163 373
e 163 374
e 163 376
e 163 377
e 163 378
e 163 380
e 163 382
e 163 383
e 163 384
e 163 386
e 163 387
e 163 388
e 163 390
e 163 393
e 163 402
e 163 404
e 163 405
e 163 406
e 163 407
e 163 412
e 163 417
e 163 418
e 163 419
e 163 422
e 163 423
e 163 429
e 163 430
e 163 434
e 163 435
e 163 436
e 163 437
e 163 438
e 163 439
e 163 440
e 163 441
e 163 442
e 163 444
e 163 445
e 163 446
e 163 447
e 163 448
e 163 449
e 163 452
e 163 454
e 163 455
e 163 456
e 163 774
e 164 165
e 164 166
e 164 169
e 164 172
e 164 174
e 164 175
e 164 176
e 164 178
e 164 180
e 164 186
e 164 187
e 164 195
e 164 196
e 164 200
e 164 201
e 164 203
e 164 205
e 164 207
e 164 208
e 164 209
e 164 211
e 164 213
e 164 216
e 164 217
e 164 219
e 164 220
e 164 222
e 164 225
e 164 230
e 164 233
e 164 236
e 164 237
e 164 239
e 164 240
e 164 245
e 164 249
e 164 253
e 164 254
e 164 255
e 164 256
e 164 257
e 164 263
e 164 272
e 164 280
e 164 283
e 164 285
e 164 287
e 164 289
e 164 291
e 164 293
e 164 294
e 164 295
e 164 296
e 164 297
e 164 298
e 164 299
e 164 300
e 164 305
e 164 310
e 164 314
e 164 315
e 164 318
e 164 319
e 164 321
e 164 322
e 164 333
e 164 338
e 164 345
e 164 346
e 164 347
e 164 362
e 164 366
e 164 368
e 164 376
e 164 382
e 164 391
e 164 402
e 164 404
e 164 405
e 164 409
e 164 413
e 164 415
e 164 423
e 164 424
e 164 425
e 164 428
e 164 438
e 164 450
e 165 166
e 165 167
e 165 168
e 165 169
e 165 171
e 165 172
e 165 173
e 165 174
e 165 175
e 165 176
e 165 177
e 165 178
e 165 179
e 165 180
e 165 183
e 165 185
e 165 186
e 165 187
e 165 189
e 165 191
e 165 194
e 165 195
e 165 196
e 165 197
e 165 198
e 165 199
e 165 200
e 165 201
e 165 202
e 165 203
e 165 205
e 165 208
e 165 209
e 165 211
e 165 213
e 165 215
e 165 216
e 165 217
e 165 219
e 165 220
e 165 222
e 165 223
e 165 225
e 165 227
e 165 228
e 165 230
e 165 231
e 165 236
e 165 237
e 165 239
e 165 240
e 165 241
e 165 242
e 165 243
e 165 244
e 165 245
e 165 246
e 165 249
e 165 253
e 165 254
e 165 255
e 165 256
e 165 257
e 165 258
e 165 260
e 165 262
e 165 263
e 165 265
e 165 267
e 165 272
e 165 273
e 165 274
e 165 275
e 165 276
e 165 277
e 165 278
e 165 279
e 165 280
e 165 283
e 165 284
e 165 285
e 165 286
e 165 287
e 165 289
e 165 290
e 165 291
e 165 292
e 165 293
e 165 294
e 165 295
e 165 297
e 165 298
e 165 299
e 165 300
e 165 302
e 165 303
e 165 304
e 165 305
e 165 309
e 165 310
e 165 314
e 165 315
e 165 316
e 165 317
e 165 318
e 165 319
e 165 320
e 165 321
e 165 322
e 165 323
e 165 325
e 165 326
e 165 327
e 165 329
e 165 330
e 165 333
e 165 335
e 165 336
e 165 337
e 165 338
e 165 341
e 165 343
e 165 344
e 165 345
e 165 346
e 165 347
e 165 349
e 165 352
e 165 353
e 165 354
e 165 355
e 165 357
e 165 361
e 165 362
e 165 365
e 165 366
e 165 367
e 165 368
e 165 369
e 165 370
e 165 371
e 165 372
e 165 373
e 165 376
e 165 377
e 165 378
e 165 380
e 165 382
e 165 383
e 165 384
e 165 385
e 165 388
e 165 393
e 165 399
e 165 402
e 165 404
e 165 405
e 165 410
e 165 412
e 165 413
e 165 415
e 165 416
e 165 417
e 165 418
e 165 419
e 165 422
e 165 424
e 165 425
e 165 427
e 165 435
e 165 436
e 165 437
e 165 438
e 165 439
e 165 440
e 165 441
e 165 442
e 165 446
e 165 448
e 165 449
e 165 451
e 165 452
e 166 169
e 166 172
e 166 174
e 166 178
e 166 196
e 166 208
e 166 216
e 166 217
e 166 225
e 166 257
e 166 263
e 166 283
e 166 305
e 166 314
e 166 315
e 166 333
e 166 345
e 166 362
e 166 376
e 166 413
e 166 415
e 166 425
e 166 438
e 167 168
e 167 171
e 167 173
e 167 174
e 167 200
e 167 203
e 167 208
e 167 209
e 167 243
e 167 255
e 167 256
e 167 273
e 167 303
e 167 319
e 167 325
e 167 337
e 167 344
e 167 352
e 167 393
e 167 402
e 167 404
e 168 171
e 168 173
e 168 174
e 168 200
e 168 203
e 168 208
e 168 209
e 168 243
e 168 255
e 168 256
e 168 273
e 168 303
e 168 319
e 168 325
e 168 337
e 168 344
e 168 352
e 168 393
e 168 402
e 168 404
e 169 172
e 169 174
e 169 178
e 169 196
e 169 208
e 169 216
e 169 217
e 169 225
e 169 257
e 169 263
e 169 283
e 169 305
e 169 314
e 169 315
e 169 333
e 169 345
e 169 362
e 169 376
e 169 413
e 169 415
e 169 425
e 169 438
e 170 174
e 170 179
e 170 181
e 170 187
e 170 201
e 170 203
e 170 216
e 170 219
e 170 240
e 170 243
e 170 245
e 170 249
e 170 254
e 170 285
e 170 286
e 170 325
e 170 338
e 170 345
e 170 351
e 170 382
e 170 388
e 170 402
e 170 407
e 170 429
e 170 430
e 170 437
e 170 439
e 170 441
e 170 774
e 171 173
e 171 174
e 171 200
e 171 203
e 171 208
e 171 209
e 171 218
e 171 236
e 171 243
e 171 255
e 171 256
e 171 273
e 171 298
e 171 303
e 171 319
e 171 325
e 171 329
e 171 337
e 171 344
e 171 349
e 171 352
e 171 381
e 171 393
e 171 399
e 171 402
e 171 404
e 171 411
e 171 421
e 171 427
e 171 436
e 171 446
e 171 461
e 171 473
e 171 502
e 171 513
e 171 551
e 171 599
e 171 615
e 171 616
e 171 626
e 171 632
e 171 690
e 171 696
e 171 704
e 171 705
e 171 714
e 171 751
e 171 753
e 171 755
e 171 756
e 172 174
e 172 178
e 172 188
e 172 189
e 172 192
e 172 196
e 172 208
e 172 209
e 172 211
e 172 216
e 172 217
e 172 222
e 172 225
e 172 236
e 172 240
e 172 244
e 172 245
e 172 254
e 172 256
e 172 257
e 172 263
e 172 275
e 172 279
e 172 280
e 172 283
e 172 289
e 172 297
e 172 305
e 172 314
e 172 315
e 172 317
e 172 320
e 172 325
e 172 333
e 172 345
e 172 347
e 172 357
e 172 362
e 172 374
e 172 376
e 172 392
e 172 402
e 172 413
e 172 415
e 172 420
e 172 423
e 172 425
e 172 426
e 172 427
e 172 437
e 172 438
e 172 442
e 172 449
e 172 451
e 172 774
e 173 174
e 173 189
e 173 199
e 173 200
e 173 203
e 173 208
e 173 209
e 173 216
e 173 220
e 173 221
e 173 240
e 173 243
e 173 251
e 173 254
e 173 255
e 173 256
e 173 258
e 173 271
e 173 273
e 173 279
e 173 280
e 173 298
e 173 303
e 173 319
e 173 325
e 173 337
e 173 338
e 173 344
e 173 352
e 173 354
e 173 364
e 173 371
e 173 373
e 173 381
e 173 393
e 173 399
e 173 400
e 173 402
e 173 404
e 173 411
e 173 428
e 173 432
e 173 435
e 173 438
e 173 448
e 173 449
e 173 455
e 173 461
e 173 469
e 173 470
e 173 478
e 173 485
e 173 486
e 173 488
e 173 489
e 173 502
e 173 503
e 173 504
e 173 505
e 173 506
e 173 513
e 173 514
e 173 515
e 173 518
e 173 519
e 173 545
e 173 547
e 173 551
e 173 552
e 173 558
e 173 564
e 173 565
e 173 570
e 173 571
e 173 579
e 173 581
e 173 591
e 173 596
e 173 607
e 173 626
e 173 627
e 173 640
e 173 642
e 173 646
e 173 648
e 173 652
e 173 656
e 173 657
e 173 658
e 173 664
e 173 665
e 173 666
e 173 675
e 173 680
e 173 682
e 173 684
e 173 685
e 173 690
e 173 702
e 173 709
e 173 710
e 173 713
e 173 740
e 173 746
e 173 759
e 174 175
e 174 176
e 174 178
e 174 179
e 174 181
e 174 182
e 174 184
e 174 187
e 174 189
e 174 193
e 174 195
e 174 196
e 174 198
e 174 199
e 174 200
e 174 201
e 174 202
e 174 203
e 174 205
e 174 208
e 174 209
e 174 210
e 174 211
e 174 213
e 174 214
e 174 215
e 174 216
e 174 217
e 174 218
e 174 219
e 174 220
e 174 222
e 174 223
e 174 224
e 174 225
e 174 232
e 174 233
e 174 234
e 174 235
e 174 236
e 174 238
e 174 239
e 174 240
e 174 241
e 174 243
e 174 244
e 174 245
e 174 246
e 174 248
e 174 249
e 174 251
e 174 252
e 174 254
e 174 255
e 174 256
e 174 257
e 174 258
e 174 263
e 174 265
e 174 266
e 174 267
e 174 269
e 174 272
e 174 273
e 174 277
e 174 279
e 174 280
e 174 281
e 174 282
e 174 283
e 174 285
e 174 286
e 174 288
e 174 289
e 174 290
e 174 296
e 174 297
e 174 298
e 174 299
e 174 300
e 174 301
e 174 302
e 174 303
e 174 305
e 174 306
e 174 309
e 174 310
e 174 312
e 174 313
e 174 314
e 174 315
e 174 317
e 174 318
e 174 319
e 174 320
e 174 321
e 174 323
e 174 324
e 174 325
e 174 326
e 174 327
e 174 329
e 174 330
e 174 331
e 174 332
e 174 333
e 174 334
e 174 335
e 174 336
e 174 337
e 174 338
e 174 341
e 174 342
e 174 343
e 174 344
e 174 345
e 174 347
e 174 349
e 174 350
e 174 351
e 174 352
e 174 354
e 174 355
e 174 356
e 174 357
e 174 359
e 174 361
e 174 362
e 174 363
e 174 364
e 174 366
e 174 367
e 174 368
e 174 369
e 174 371
e 174 372
e 174 373
e 174 376
e 174 378
e 174 381
e 174 382
e 174 383
e 174 384
e 174 385
e 174 386
e 174 387
e 174 388
e 174 389
e 174 390
e 174 393
e 174 398
e 174 399
e 174 400
e 174 402
e 174 404
e 174 405
e 174 407
e 174 408
e 174 409
e 174 410
e 174 411
e 174 413
e 174 414
e 174 415
e 174 417
e 174 420
e 174 421
e 174 422
e 174 423
e 174 425
e 174 427
e 174 429
e 174 430
e 174 432
e 174 435
e 174 436
e 174 437
e 174 438
e 174 439
e 174 440
e 174 441
e 174 442
e 174 443
e 174 444
e 174 445
e 174 446
e 174 447
e 174 448
e 174 449
e 174 452
e 174 453
e 174 454
e 174 455
e 174 456
e 174 460
e 174 461
e 174 467
e 174 469
e 174 470
e 174 473
e 174 475
e 174 476
e 174 477
e 174 478
e 174 479
e 174 480
e 174 484
e 174 485
e 174 486
e 174 488
e 174 491
e 174 496
e 174 498
e 174 502
e 174 505
e 174 513
e 174 514
e 174 515
e 174 516
e 174 530
e 174 537
e 174 538
e 174 540
e 174 545
e 174 547
e 174 549
e 174 550
e 174 551
e 174 552
e 174 558
e 174 562
e 174 563
e 174 564
e 174 565
e 174 566
e 174 568
e 174 570
e 174 571
e 174 578
e 174 579
e 174 581
e 174 582
e 174 583
e 174 587
e 174 589
e 174 593
e 174 594
e 174 599
e 174 602
e 174 607
e 174 608
e 174 611
e 174 612
e 174 615
e 174 616
e 174 622
e 174 623
e 174 624
e 174 626
e 174 627
e 174 633
e 174 640
e 174 642
e 174 643
e 174 646
e 174 647
e 174 648
e 174 649
e 174 650
e 174 651
e 174 652
e 174 654
e 174 656
e 174 657
e 174 658
e 174 659
e 174 660
e 174 662
e 174 665
e 174 666
e 174 670
e 174 671
e 174 672
e 174 677
e 174 678
e 174 680
e 174 681
e 174 682
e 174 684
e 174 687
e 174 690
e 174 691
e 174 694
e 174 696
e 174 698
e 174 699
e 174 703
e 174 704
e 174 705
e 174 706
e 174 709
e 174 711
e 174 712
e 174 714
e 174 715
e 174 716
e 174 717
e 174 718
e 174 719
e 174 722
e 174 723
e 174 725
e 174 726
e 174 727
e 174 728
e 174 729
e 174 731
e 174 732
e 174 734
e 174 735
e 174 736
e 174 737
e 174 738
e 174 740
e 174 741
e 174 744
e 174 745
e 174 746
e 174 747
e 174 748
e 174 751
e 174 752
e 174 753
e 174 754
e 174 755
e 174 756
e 174 757
e 174 758
e 174 759
e 174 760
e 174 761
e 174 762
e 174 763
e 174 764
e 174 767
e 174 768
e 174 771
e 174 772
e 174 773
e 174 774
e 174 775
e 174 776
e 174 777
e 175 176
e 175 178
e 175 185
e 175 186
e 175 187
e 175 189
e 175 198
e 175 200
e 175 201
e 175 203
e 175 208
e 175 209
e 175 211
e 175 213
e 175 215
e 175 220
e 175 222
e 175 223
e 175 233
e 175 236
e 175 237
e 175 240
e 175 245
e 175 254
e 175 256
e 175 257
e 175 262
e 175 267
e 175 272
e 175 276
e 175 279
e 175 280
e 175 283
e 175 285
e 175 286
e 175 289
e 175 293
e 175 295
e 175 296
e 175 297
e 175 298
e 175 304
e 175 310
e 175 316
e 175 320
e 175 321
e 175 323
e 175 326
e 175 327
e 175 329
e 175 338
e 175 347
e 175 353
e 175 357
e 175 361
e 175 362
e 175 365
e 175 366
e 175 368
e 175 371
e 175 372
e 175 376
e 175 383
e 175 384
e 175 402
e 175 405
e 175 409
e 175 410
e 175 412
e 175 417
e 175 418
e 175 419
e 175 423
e 175 434
e 175 435
e 175 438
e 175 440
e 175 441
e 175 444
e 175 445
e 175 452
e 175 774
e 176 185
e 176 186
e 176 187
e 176 189
e 176 200
e 176 201
e 176 203
e 176 209
e 176 211
e 176 213
e 176 215
e 176 220
e 176 222
e 176 233
e 176 236
e 176 237
e 176 240
e 176 256
e 176 262
e 176 279
e 176 283
e 176 285
e 176 295
e 176 296
e 176 297
e 176 298
e 176 310
e 176 338
e 176 347
e 176 366
e 176 371
e 176 405
e 176 409
e 176 410
e 176 423
e 176 452
e 177 179
e 177 189
e 177 193
e 177 195
e 177 198
e 177 203
e 177 208
e 177 209
e 177 217
e 177 220
e 177 222
e 177 228
e 177 240
e 177 242
e 177 246
e 177 249
e 177 254
e 177 256
e 177 265
e 177 272
e 177 275
e 177 277
e 177 280
e 177 285
e 177 291
e 177 292
e 177 299
e 177 300
e 177 301
e 177 313
e 177 319
e 177 320
e 177 325
e 177 327
e 177 329
e 177 335
e 177 338
e 177 342
e 177 347
e 177 354
e 177 362
e 177 363
e 177 364
e 177 370
e 177 380
e 177 382
e 177 384
e 177 404
e 177 417
e 177 419
e 177 435
e 177 437
e 177 439
e 177 446
e 177 454
e 178 179
e 178 186
e 178 196
e 178 200
e 178 208
e 178 216
e 178 217
e 178 222
e 178 225
e 178 234
e 178 257
e 178 263
e 178 276
e 178 277
e 178 280
e 178 283
e 178 293
e 178 298
e 178 305
e 178 314
e 178 315
e 178 317
e 178 319
e 178 320
e 178 323
e 178 326
e 178 327
e 178 333
e 178 345
e 178 347
e 178 348
e 178 353
e 178 361
e 178 362
e 178 365
e 178 366
e 178 368
e 178 371
e 178 376
e 178 378
e 178 383
e 178 384
e 178 397
e 178 410
e 178 413
e 178 415
e 178 425
e 178 428
e 178 438
e 178 440
e 178 456
e 179 181
e 179 186
e 179 187
e 179 189
e 179 190
e 179 195
e 179 196
e 179 198
e 179 200
e 179 201
e 179 203
e 179 205
e 179 207
e 179 208
e 179 209
e 179 212
e 179 213
e 179 215
e 179 216
e 179 217
e 179 219
e 179 220
e 179 222
e 179 228
e 179 231
e 179 234
e 179 236
e 179 237
e 179 240
e 179 241
e 179 242
e 179 243
e 179 245
e 179 246
e 179 249
e 179 251
e 179 253
e 179 254
e 179 256
e 179 257
e 179 258
e 179 260
e 179 261
e 179 262
e 179 265
e 179 267
e 179 268
e 179 269
e 179 272
e 179 273
e 179 275
e 179 277
e 179 279
e 179 280
e 179 281
e 179 283
e 179 284
e 179 285
e 179 286
e 179 289
e 179 291
e 179 292
e 179 298
e 179 299
e 179 300
e 179 304
e 179 305
e 179 308
e 179 309
e 179 310
e 179 312
e 179 316
e 179 317
e 179 318
e 179 319
e 179 320
e 179 321
e 179 322
e 179 325
e 179 326
e 179 327
e 179 329
e 179 330
e 179 333
e 179 334
e 179 335
e 179 336
e 179 337
e 179 338
e 179 340
e 179 341
e 179 343
e 179 345
e 179 347
e 179 348
e 179 349
e 179 350
e 179 351
e 179 354
e 179 355
e 179 356
e 179 357
e 179 360
e 179 361
e 179 362
e 179 365
e 179 366
e 179 367
e 179 368
e 179 369
e 179 370
e 179 371
e 179 373
e 179 374
e 179 375
e 179 377
e 179 378
e 179 379
e 179 380
e 179 381
e 179 382
e 179 383
e 179 384
e 179 386
e 179 388
e 179 389
e 179 397
e 179 398
e 179 399
e 179 401
e 179 402
e 179 403
e 179 404
e 179 405
e 179 406
e 179 407
e 179 409
e 179 410
e 179 413
e 179 414
e 179 416
e 179 417
e 179 418
e 179 419
e 179 420
e 179 422
e 179 423
e 179 424
e 179 426
e 179 427
e 179 428
e 179 429
e 179 430
e 179 433
e 179 434
e 179 435
e 179 437
e 179 438
e 179 439
e 179 440
e 179 441
e 179 442
e 179 443
e 179 444
e 179 445
e 179 446
e 179 447
e 179 450
e 179 451
e 179 454
e 179 455
e 179 456
e 179 774
e 180 195
e 180 196
e 180 197
e 180 200
e 180 201
e 180 208
e 180 213
e 180 216
e 180 219
e 180 227
e 180 230
e 180 245
e 180 249
e 180 254
e 180 256
e 180 257
e 180 272
e 180 280
e 180 283
e 180 285
e 180 287
e 180 289
e 180 293
e 180 294
e 180 305
e 180 318
e 180 321
e 180 322
e 180 333
e 180 346
e 180 347
e 180 382
e 180 402
e 180 413
e 180 415
e 180 424
e 180 425
e 180 450
e 181 187
e 181 189
e 181 200
e 181 201
e 181 203
e 181 208
e 181 209
e 181 213
e 181 216
e 181 217
e 181 219
e 181 220
e 181 222
e 181 240
e 181 241
e 181 243
e 181 245
e 181 249
e 181 251
e 181 254
e 181 265
e 181 273
e 181 280
e 181 285
e 181 286
e 181 289
e 181 305
e 181 318
e 181 320
e 181 321
e 181 325
e 181 326
e 181 333
e 181 337
e 181 338
e 181 345
e 181 349
e 181 351
e 181 368
e 181 377
e 181 378
e 181 382
e 181 383
e 181 386
e 181 388
e 181 399
e 181 401
e 181 402
e 181 405
e 181 406
e 181 407
e 181 423
e 181 427
e 181 429
e 181 430
e 181 437
e 181 439
e 181 441
e 181 444
e 181 445
e 181 450
e 181 451
e 181 455
e 181 774
e 182 186
e 182 189
e 182 200
e 182 201
e 182 207
e 182 209
e 182 215
e 182 220
e 182 222
e 182 233
e 182 234
e 182 237
e 182 240
e 182 249
e 182 254
e 182 265
e 182 272
e 182 277
e 182 280
e 182 285
e 182 286
e 182 295
e 182 306
e 182 317
e 182 321
e 182 335
e 182 338
e 182 347
e 182 354
e 182 362
e 182 366
e 182 368
e 182 385
e 182 391
e 182 408
e 182 409
e 182 413
e 182 423
e 182 428
e 182 435
e 182 438
e 182 442
e 182 452
e 182 454
e 182 456
e 183 185
e 183 186
e 183 189
e 183 195
e 183 196
e 183 200
e 183 207
e 183 211
e 183 213
e 183 215
e 183 219
e 183 222
e 183 230
e 183 237
e 183 256
e 183 257
e 183 262
e 183 272
e 183 273
e 183 283
e 183 285
e 183 287
e 183 293
e 183 294
e 183 295
e 183 310
e 183 320
e 183 321
e 183 338
e 183 347
e 183 356
e 183 375
e 183 402
e 183 425
e 184 189
e 184 201
e 184 209
e 184 215
e 184 222
e 184 234
e 184 235
e 184 236
e 184 249
e 184 254
e 184 277
e 184 285
e 184 286
e 184 296
e 184 317
e 184 321
e 184 335
e 184 338
e 184 366
e 184 368
e 184 385
e 184 408
e 184 423
e 184 435
e 184 438
e 184 442
e 184 452
e 184 454
e 184 456
e 185 186
e 185 189
e 185 196
e 185 200
e 185 203
e 185 207
e 185 211
e 185 213
e 185 215
e 185 220
e 185 222
e 185 230
e 185 236
e 185 237
e 185 256
e 185 257
e 185 262
e 185 272
e 185 273
e 185 279
e 185 283
e 185 285
e 185 287
e 185 295
e 185 297
e 185 310
e 185 320
e 185 338
e 185 347
e 185 356
e 185 366
e 185 371
e 185 375
e 185 402
e 185 410
e 185 425
e 185 452
e 186 189
e 186 200
e 186 201
e 186 203
e 186 207
e 186 209
e 186 211
e 186 213
e 186 215
e 186 217
e 186 220
e 186 222
e 186 231
e 186 233
e 186 234
e 186 235
e 186 236
e 186 237
e 186 240
e 186 245
e 186 254
e 186 256
e 186 258
e 186 262
e 186 271
e 186 272
e 186 273
e 186 277
e 186 279
e 186 280
e 186 283
e 186 285
e 186 286
e 186 295
e 186 296
e 186 297
e 186 298
e 186 305
e 186 310
e 186 317
e 186 320
e 186 321
e 186 330
e 186 331
e 186 338
e 186 347
e 186 348
e 186 354
e 186 362
e 186 364
e 186 366
e 186 368
e 186 371
e 186 378
e 186 385
e 186 390
e 186 391
e 186 397
e 186 402
e 186 408
e 186 409
e 186 410
e 186 413
e 186 416
e 186 423
e 186 425
e 186 428
e 186 441
e 186 452
e 186 456
e 187 189
e 187 191
e 187 196
e 187 198
e 187 199
e 187 200
e 187 201
e 187 203
e 187 205
e 187 206
e 187 208
e 187 209
e 187 211
e 187 216
e 187 217
e 187 218
e 187 219
e 187 220
e 187 222
e 187 225
e 187 226
e 187 229
e 187 231
e 187 232
e 187 233
e 187 236
e 187 238
e 187 239
e 187 240
e 187 241
e 187 243
e 187 244
e 187 245
e 187 249
e 187 251
e 187 254
e 187 255
e 187 256
e 187 257
e 187 260
e 187 263
e 187 264
e 187 265
e 187 266
e 187 267
e 187 269
e 187 270
e 187 273
e 187 274
e 187 275
e 187 277
e 187 278
e 187 280
e 187 282
e 187 283
e 187 284
e 187 285
e 187 286
e 187 289
e 187 291
e 187 292
e 187 293
e 187 296
e 187 297
e 187 298
e 187 301
e 187 303
e 187 304
e 187 306
e 187 307
e 187 310
e 187 312
e 187 315
e 187 317
e 187 320
e 187 321
e 187 323
e 187 324
e 187 325
e 187 327
e 187 329
e 187 333
e 187 335
e 187 336
e 187 337
e 187 338
e 187 339
e 187 340
e 187 344
e 187 345
e 187 347
e 187 350
e 187 351
e 187 352
e 187 357
e 187 359
e 187 360
e 187 362
e 187 368
e 187 371
e 187 376
e 187 377
e 187 382
e 187 383
e 187 388
e 187 391
e 187 393
e 187 399
e 187 402
e 187 405
e 187 407
e 187 409
e 187 412
e 187 414
e 187 419
e 187 422
e 187 423
e 187 427
e 187 428
e 187 429
e 187 430
e 187 432
e 187 435
e 187 436
e 187 437
e 187 438
e 187 439
e 187 441
e 187 442
e 187 449
e 187 456
e 187 475
e 187 478
e 187 479
e 187 480
e 187 484
e 187 491
e 187 498
e 187 501
e 187 502
e 187 507
e 187 508
e 187 513
e 187 515
e 187 516
e 187 521
e 187 537
e 187 545
e 187 548
e 187 551
e 187 568
e 187 571
e 187 578
e 187 580
e 187 581
e 187 582
e 187 583
e 187 584
e 187 585
e 187 592
e 187 599
e 187 605
e 187 607
e 187 610
e 187 617
e 187 618
e 187 619
e 187 621
e 187 623
e 187 636
e 187 640
e 187 645
e 187 648
e 187 651
e 187 660
e 187 662
e 187 663
e 187 669
e 187 678
e 187 682
e 187 688
e 187 690
e 187 696
e 187 697
e 187 700
e 187 707
e 187 710
e 187 716
e 187 720
e 187 725
e 187 730
e 187 731
e 187 732
e 187 739
e 187 741
e 187 746
e 187 761
e 187 766
e 187 771
e 187 772
e 187 774
e 187 776
e 188 192
e 188 201
e 188 203
e 188 207
e 188 209
e 188 211
e 188 217
e 188 222
e 188 236
e 188 240
e 188 244
e 188 245
e 188 254
e 188 256
e 188 272
e 188 279
e 188 280
e 188 289
e 188 297
e 188 320
e 188 321
e 188 325
e 188 335
e 188 347
e 188 357
e 188 368
e 188 378
e 188 392
e 188 408
e 188 413
e 188 423
e 188 427
e 188 433
e 188 435
e 188 438
e 188 442
e 188 451
e 188 454
e 188 774
e 189 191
e 189 192
e 189 193
e 189 195
e 189 196
e 189 198
e 189 199
e 189 200
e 189 201
e 189 203
e 189 204
e 189 205
e 189 206
e 189 207
e 189 208
e 189 209
e 189 210
e 189 211
e 189 213
e 189 214
e 189 215
e 189 216
e 189 217
e 189 218
e 189 220
e 189 222
e 189 223
e 189 224
e 189 225
e 189 228
e 189 229
e 189 231
e 189 232
e 189 233
e 189 234
e 189 235
e 189 236
e 189 237
e 189 240
e 189 241
e 189 242
e 189 243
e 189 244
e 189 245
e 189 246
e 189 247
e 189 248
e 189 249
e 189 250
e 189 251
e 189 252
e 189 254
e 189 255
e 189 256
e 189 257
e 189 258
e 189 259
e 189 260
e 189 262
e 189 263
e 189 265
e 189 266
e 189 267
e 189 268
e 189 269
e 189 271
e 189 272
e 189 273
e 189 274
e 189 275
e 189 276
e 189 277
e 189 278
e 189 279
e 189 280
e 189 282
e 189 283
e 189 284
e 189 285
e 189 286
e 189 288
e 189 289
e 189 292
e 189 293
e 189 295
e 189 296
e 189 297
e 189 298
e 189 299
e 189 300
e 189 301
e 189 302
e 189 304
e 189 305
e 189 306
e 189 308
e 189 309
e 189 310
e 189 311
e 189 313
e 189 316
e 189 317
e 189 318
e 189 319
e 189 320
e 189 321
e 189 322
e 189 323
e 189 325
e 189 326
e 189 327
e 189 328
e 189 329
e 189 330
e 189 331
e 189 332
e 189 333
e 189 334
e 189 335
e 189 336
e 189 337
e 189 338
e 189 340
e 189 342
e 189 344
e 189 345
e 189 347
e 189 349
e 189 350
e 189 352
e 189 354
e 189 355
e 189 356
e 189 357
e 189 359
e 189 360
e 189 362
e 189 363
e 189 364
e 189 366
e 189 367
e 189 368
e 189 371
e 189 372
e 189 373
e 189 374
e 189 375
e 189 376
e 189 377
e 189 378
e 189 379
e 189 381
e 189 383
e 189 384
e 189 386
e 189 387
e 189 389
e 189 390
e 189 391
e 189 392
e 189 394
e 189 395
e 189 396
e 189 398
e 189 399
e 189 400
e 189 401
e 189 402
e 189 403
e 189 404
e 189 405
e 189 406
e 189 407
e 189 408
e 189 409
e 189 410
e 189 411
e 189 412
e 189 413
e 189 414
e 189 416
e 189 417
e 189 418
e 189 419
e 189 420
e 189 422
e 189 423
e 189 424
e 189 425
e 189 426
e 189 427
e 189 428
e 189 429
e 189 430
e 189 432
e 189 433
e 189 434
e 189 435
e 189 436
e 189 437
e 189 438
e 189 439
e 189 440
e 189 441
e 189 442
e 189 443
e 189 444
e 189 445
e 189 446
e 189 447
e 189 448
e 189 449
e 189 450
e 189 451
e 189 452
e 189 454
e 189 455
e 189 456
e 189 457
e 189 460
e 189 461
e 189 462
e 189 467
e 189 468
e 189 469
e 189 470
e 189 471
e 189 473
e 189 475
e 189 476
e 189 477
e 189 479
e 189 480
e 189 481
e 189 485
e 189 486
e 189 489
e 189 491
e 189 493
e 189 496
e 189 497
e 189 498
e 189 499
e 189 502
e 189 503
e 189 504
e 189 505
e 189 506
e 189 513
e 189 514
e 189 515
e 189 516
e 189 518
e 189 519
e 189 530
e 189 537
e 189 540
e 189 541
e 189 542
e 189 543
e 189 544
e 189 545
e 189 546
e 189 547
e 189 549
e 189 551
e 189 552
e 189 556
e 189 557
e 189 558
e 189 562
e 189 563
e 189 565
e 189 568
e 189 570
e 189 571
e 189 577
e 189 579
e 189 581
e 189 583
e 189 589
e 189 590
e 189 591
e 189 593
e 189 594
e 189 596
e 189 599
e 189 603
e 189 605
e 189 607
e 189 613
e 189 615
e 189 618
e 189 620
e 189 622
e 189 623
e 189 625
e 189 626
e 189 628
e 189 629
e 189 630
e 189 631
e 189 634
e 189 637
e 189 638
e 189 640
e 189 642
e 189 643
e 189 646
e 189 647
e 189 648
e 189 649
e 189 651
e 189 652
e 189 653
e 189 657
e 189 658
e 189 660
e 189 662
e 189 664
e 189 665
e 189 666
e 189 667
e 189 669
e 189 671
e 189 672
e 189 673
e 189 675
e 189 678
e 189 679
e 189 680
e 189 681
e 189 682
e 189 684
e 189 685
e 189 686
e 189 687
e 189 688
e 189 689
e 189 690
e 189 691
e 189 694
e 189 702
e 189 703
e 189 704
e 189 705
e 189 708
e 189 709
e 189 710
e 189 711
e 189 713
e 189 714
e 189 715
e 189 716
e 189 718
e 189 719
e 189 721
e 189 722
e 189 724
e 189 725
e 189 727
e 189 728
e 189 729
e 189 731
e 189 733
e 189 734
e 189 735
e 189 736
e 189 737
e 189 738
e 189 740
e 189 742
e 189 744
e 189 745
e 189 746
e 189 747
e 189 748
e 189 750
e 189 752
e 189 753
e 189 754
e 189 755
e 189 759
e 189 760
e 189 761
e 189 762
e 189 763
e 189 764
e 189 765
e 189 766
e 189 767
e 189 768
e 189 769
e 189 770
e 189 771
e 189 772
e 189 773
e 189 774
e 189 775
e 189 776
e 189 778
e 190 203
e 190 205
e 190 207
e 190 215
e 190 222
e 190 236
e 190 261
e 190 277
e 190 279
e 190 280
e 190 298
e 190 312
e 190 320
e 190 334
e 190 354
e 190 357
e 190 389
e 190 398
e 190 402
e 190 403
e 190 407
e 190 414
e 190 426
e 190 433
e 190 443
e 191 201
e 191 209
e 191 222
e 191 225
e 191 229
e 191 240
e 191 241
e 191 243
e 191 245
e 191 256
e 191 260
e 191 263
e 191 274
e 191 275
e 191 277
e 191 278
e 191 280
e 191 284
e 191 292
e 191 317
e 191 325
e 191 332
e 191 336
e 191 344
e 191 354
e 191 376
e 191 377
e 191 435
e 191 442
e 192 200
e 192 209
e 192 210
e 192 211
e 192 217
e 192 222
e 192 232
e 192 234
e 192 236
e 192 240
e 192 244
e 192 245
e 192 247
e 192 248
e 192 250
e 192 254
e 192 256
e 192 259
e 192 272
e 192 275
e 192 276
e 192 279
e 192 280
e 192 283
e 192 289
e 192 297
e 192 311
e 192 320
e 192 325
e 192 328
e 192 329
e 192 347
e 192 357
e 192 374
e 192 392
e 192 406
e 192 416
e 192 422
e 192 423
e 192 424
e 192 426
e 192 427
e 192 437
e 192 442
e 192 447
e 192 449
e 192 450
e 192 451
e 192 774
e 193 214
e 193 217
e 193 220
e 193 222
e 193 224
e 193 228
e 193 245
e 193 249
e 193 254
e 193 265
e 193 272
e 193 280
e 193 285
e 193 286
e 193 301
e 193 306
e 193 313
e 193 317
e 193 320
e 193 321
e 193 325
e 193 327
e 193 331
e 193 335
e 193 338
e 193 342
e 193 354
e 193 362
e 193 363
e 193 364
e 193 387
e 193 390
e 193 417
e 193 435
e 193 437
e 193 442
e 193 452
e 193 454
e 193 456
e 194 195
e 194 197
e 194 200
e 194 208
e 194 213
e 194 214
e 194 216
e 194 222
e 194 227
e 194 240
e 194 245
e 194 249
e 194 272
e 194 283
e 194 285
e 194 286
e 194 289
e 194 293
e 194 294
e 194 318
e 194 321
e 194 325
e 194 346
e 194 347
e 194 354
e 194 366
e 194 385
e 194 413
e 194 415
e 194 417
e 194 428
e 195 196
e 195 197
e 195 198
e 195 200
e 195 201
e 195 203
e 195 205
e 195 207
e 195 208
e 195 209
e 195 213
e 195 216
e 195 217
e 195 219
e 195 220
e 195 222
e 195 223
e 195 227
e 195 230
e 195 236
e 195 240
e 195 242
e 195 243
e 195 244
e 195 245
e 195 249
e 195 253
e 195 254
e 195 256
e 195 257
e 195 265
e 195 268
e 195 269
e 195 272
e 195 277
e 195 280
e 195 283
e 195 285
e 195 286
e 195 287
e 195 289
e 195 291
e 195 292
e 195 293
e 195 294
e 195 299
e 195 300
e 195 301
e 195 305
e 195 308
e 195 309
e 195 313
e 195 318
e 195 319
e 195 320
e 195 321
e 195 322
e 195 325
e 195 326
e 195 327
e 195 329
e 195 333
e 195 335
e 195 337
e 195 338
e 195 346
e 195 347
e 195 349
e 195 354
e 195 360
e 195 362
e 195 364
e 195 365
e 195 367
e 195 368
e 195 372
e 195 374
e 195 376
e 195 379
e 195 380
e 195 381
e 195 382
e 195 384
e 195 385
e 195 386
e 195 398
e 195 399
e 195 401
e 195 402
e 195 403
e 195 404
e 195 413
e 195 415
e 195 419
e 195 420
e 195 422
e 195 423
e 195 424
e 195 425
e 195 427
e 195 433
e 195 435
e 195 436
e 195 437
e 195 438
e 195 439
e 195 440
e 195 442
e 195 446
e 195 450
e 195 451
e 195 454
e 195 455
e 195 774
e 196 198
e 196 199
e 196 200
e 196 201
e 196 203
e 196 205
e 196 207
e 196 208
e 196 209
e 196 212
e 196 213
e 196 215
e 196 216
e 196 217
e 196 218
e 196 219
e 196 220
e 196 222
e 196 223
e 196 225
e 196 226
e 196 229
e 196 230
e 196 236
e 196 239
e 196 240
e 196 241
e 196 243
e 196 245
e 196 246
e 196 249
e 196 251
e 196 253
e 196 254
e 196 256
e 196 257
e 196 258
e 196 263
e 196 265
e 196 272
e 196 273
e 196 275
e 196 276
e 196 277
e 196 279
e 196 280
e 196 283
e 196 285
e 196 287
e 196 289
e 196 291
e 196 292
e 196 293
e 196 294
e 196 295
e 196 298
e 196 301
e 196 303
e 196 304
e 196 305
e 196 308
e 196 309
e 196 310
e 196 312
e 196 313
e 196 314
e 196 315
e 196 318
e 196 319
e 196 320
e 196 321
e 196 322
e 196 325
e 196 326
e 196 327
e 196 329
e 196 333
e 196 336
e 196 337
e 196 340
e 196 341
e 196 342
e 196 344
e 196 345
e 196 346
e 196 347
e 196 350
e 196 351
e 196 352
e 196 353
e 196 354
e 196 355
e 196 356
e 196 357
e 196 361
e 196 362
e 196 369
e 196 370
e 196 371
e 196 373
e 196 375
e 196 376
e 196 377
e 196 378
e 196 379
e 196 380
e 196 381
e 196 382
e 196 383
e 196 384
e 196 388
e 196 393
e 196 394
e 196 395
e 196 396
e 196 399
e 196 401
e 196 402
e 196 405
e 196 407
e 196 409
e 196 410
e 196 412
e 196 413
e 196 415
e 196 416
e 196 418
e 196 419
e 196 422
e 196 424
e 196 425
e 196 428
e 196 429
e 196 430
e 196 432
e 196 434
e 196 435
e 196 436
e 196 437
e 196 438
e 196 440
e 196 441
e 196 443
e 196 444
e 196 446
e 196 448
e 196 449
e 196 450
e 196 457
e 196 460
e 196 467
e 196 475
e 196 477
e 196 478
e 196 479
e 196 480
e 196 481
e 196 484
e 196 485
e 196 486
e 196 491
e 196 498
e 196 502
e 196 505
e 196 513
e 196 514
e 196 515
e 196 516
e 196 521
e 196 530
e 196 545
e 196 551
e 196 554
e 196 555
e 196 562
e 196 563
e 196 568
e 196 570
e 196 571
e 196 577
e 196 580
e 196 581
e 196 583
e 196 587
e 196 593
e 196 597
e 196 598
e 196 599
e 196 600
e 196 607
e 196 610
e 196 618
e 196 623
e 196 626
e 196 643
e 196 644
e 196 648
e 196 651
e 196 653
e 196 655
e 196 667
e 196 678
e 196 682
e 196 690
e 196 693
e 196 697
e 196 711
e 196 714
e 196 715
e 196 716
e 196 730
e 196 732
e 196 733
e 196 737
e 196 739
e 196 741
e 196 744
e 196 747
e 196 751
e 196 754
e 196 759
e 196 761
e 196 765
e 196 766
e 196 768
e 196 769
e 196 770
e 196 776
e 196 777
e 196 778
e 197 200
e 197 208
e 197 213
e 197 216
e 197 219
e 197 222
e 197 227
e 197 245
e 197 249
e 197 254
e 197 256
e 197 257
e 197 272
e 197 283
e 197 285
e 197 287
e 197 289
e 197 293
e 197 294
e 197 318
e 197 321
e 197 322
e 197 325
e 197 346
e 197 354
e 197 385
e 197 413
e 197 415
e 198 200
e 198 201
e 198 203
e 198 205
e 198 208
e 198 209
e 198 222
e 198 223
e 198 228
e 198 231
e 198 240
e 198 242
e 198 243
e 198 244
e 198 245
e 198 246
e 198 249
e 198 253
e 198 254
e 198 255
e 198 256
e 198 260
e 198 267
e 198 272
e 198 277
e 198 280
e 198 284
e 198 285
e 198 286
e 198 289
e 198 290
e 198 291
e 198 293
e 198 298
e 198 299
e 198 300
e 198 304
e 198 310
e 198 316
e 198 317
e 198 319
e 198 320
e 198 321
e 198 323
e 198 325
e 198 327
e 198 329
e 198 333
e 198 335
e 198 338
e 198 342
e 198 343
e 198 347
e 198 349
e 198 350
e 198 355
e 198 357
e 198 359
e 198 360
e 198 362
e 198 363
e 198 364
e 198 368
e 198 373
e 198 375
e 198 376
e 198 377
e 198 379
e 198 380
e 198 381
e 198 382
e 198 384
e 198 399
e 198 401
e 198 404
e 198 412
e 198 417
e 198 418
e 198 419
e 198 435
e 198 436
e 198 437
e 198 439
e 198 442
e 198 446
e 198 448
e 198 451
e 199 200
e 199 201
e 199 202
e 199 203
e 199 208
e 199 209
e 199 210
e 199 215
e 199 216
e 199 218
e 199 220
e 199 221
e 199 222
e 199 226
e 199 236
e 199 240
e 199 243
e 199 244
e 199 245
e 199 246
e 199 249
e 199 251
e 199 254
e 199 255
e 199 257
e 199 258
e 199 260
e 199 265
e 199 267
e 199 269
e 199 271
e 199 273
e 199 280
e 199 286
e 199 289
e 199 290
e 199 291
e 199 297
e 199 298
e 199 304
e 199 307
e 199 312
e 199 320
e 199 326
e 199 329
e 199 335
e 199 337
e 199 338
e 199 342
e 199 343
e 199 345
e 199 350
e 199 354
e 199 362
e 199 371
e 199 372
e 199 373
e 199 376
e 199 381
e 199 382
e 199 383
e 199 391
e 199 399
e 199 400
e 199 402
e 199 405
e 199 410
e 199 411
e 199 421
e 199 422
e 199 427
e 199 428
e 199 432
e 199 435
e 199 436
e 199 438
e 199 446
e 199 448
e 199 449
e 199 455
e 199 456
e 199 457
e 199 460
e 199 461
e 199 462
e 199 464
e 199 465
e 199 466
e 199 467
e 199 468
e 199 473
e 199 475
e 199 476
e 199 477
e 199 478
e 199 479
e 199 480
e 199 481
e 199 484
e 199 485
e 199 486
e 199 489
e 199 491
e 199 493
e 199 496
e 199 498
e 199 502
e 199 503
e 199 504
e 199 505
e 199 506
e 199 513
e 199 514
e 199 515
e 199 516
e 199 519
e 199 521
e 199 530
e 199 536
e 199 537
e 199 543
e 199 545
e 199 546
e 199 551
e 199 552
e 199 554
e 199 555
e 199 558
e 199 560
e 199 563
e 199 564
e 199 565
e 199 566
e 199 568
e 199 570
e 199 571
e 199 577
e 199 578
e 199 580
e 199 581
e 199 582
e 199 583
e 199 584
e 199 585
e 199 587
e 199 593
e 199 596
e 199 599
e 199 601
e 199 604
e 199 607
e 199 610
e 199 615
e 199 617
e 199 618
e 199 619
e 199 620
e 199 621
e 199 622
e 199 623
e 199 626
e 199 629
e 199 632
e 199 633
e 199 638
e 199 639
e 199 640
e 199 642
e 199 644
e 199 646
e 199 648
e 199 650
e 199 652
e 199 653
e 199 655
e 199 656
e 199 657
e 199 660
e 199 662
e 199 664
e 199 665
e 199 666
e 199 667
e 199 669
e 199 672
e 199 674
e 199 675
e 199 676
e 199 677
e 199 678
e 199 679
e 199 680
e 199 681
e 199 682
e 199 684
e 199 687
e 199 690
e 199 691
e 199 693
e 199 696
e 199 697
e 199 700
e 199 704
e 199 707
e 199 708
e 199 711
e 199 714
e 199 715
e 199 716
e 199 718
e 199 720
e 199 721
e 199 724
e 199 730
e 199 731
e 199 732
e 199 733
e 199 734
e 199 735
e 199 738
e 199 739
e 199 740
e 199 741
e 199 742
e 199 744
e 199 746
e 199 747
e 199 748
e 199 750
e 199 752
e 199 753
e 199 754
e 199 755
e 199 756
e 199 757
e 199 758
e 199 759
e 199 760
e 199 761
e 199 762
e 199 763
e 199 764
e 199 765
e 199 766
e 199 768
e 199 769
e 199 770
e 199 771
e 199 772
e 199 773
e 199 775
e 199 776
e 199 778
e 200 201
e 200 202
e 200 203
e 200 205
e 200 207
e 200 208
e 200 209
e 200 210
e 200 211
e 200 213
e 200 215
e 200 216
e 200 217
e 200 219
e 200 220
e 200 222
e 200 223
e 200 225
e 200 227
e 200 228
e 200 230
e 200 231
e 200 232
e 200 233
e 200 234
e 200 235
e 200 236
e 200 237
e 200 239
e 200 240
e 200 241
e 200 242
e 200 243
e 200 244
e 200 245
e 200 247
e 200 248
e 200 249
e 200 250
e 200 251
e 200 252
e 200 253
e 200 254
e 200 255
e 200 256
e 200 257
e 200 258
e 200 259
e 200 260
e 200 262
e 200 264
e 200 265
e 200 266
e 200 267
e 200 270
e 200 271
e 200 272
e 200 273
e 200 274
e 200 275
e 200 276
e 200 277
e 200 278
e 200 279
e 200 280
e 200 283
e 200 284
e 200 285
e 200 286
e 200 287
e 200 289
e 200 290
e 200 291
e 200 292
e 200 293
e 200 294
e 200 295
e 200 296
e 200 297
e 200 298
e 200 299
e 200 300
e 200 303
e 200 304
e 200 305
e 200 307
e 200 309
e 200 310
e 200 311
e 200 313
e 200 317
e 200 318
e 200 319
e 200 320
e 200 321
e 200 322
e 200 325
e 200 326
e 200 327
e 200 328
e 200 329
e 200 330
e 200 331
e 200 333
e 200 335
e 200 337
e 200 338
e 200 343
e 200 344
e 200 345
e 200 346
e 200 347
e 200 348
e 200 349
e 200 352
e 200 354
e 200 356
e 200 357
e 200 361
e 200 362
e 200 364
e 200 366
e 200 367
e 200 368
e 200 370
e 200 371
e 200 372
e 200 374
e 200 376
e 200 377
e 200 378
e 200 380
e 200 382
e 200 383
e 200 385
e 200 389
e 200 390
e 200 391
e 200 392
e 200 393
e 200 394
e 200 395
e 200 396
e 200 397
e 200 399
e 200 401
e 200 402
e 200 404
e 200 405
e 200 406
e 200 407
e 200 408
e 200 409
e 200 410
e 200 413
e 200 415
e 200 416
e 200 417
e 200 419
e 200 420
e 200 422
e 200 423
e 200 424
e 200 425
e 200 426
e 200 427
e 200 428
e 200 429
e 200 430
e 200 434
e 200 436
e 200 437
e 200 441
e 200 442
e 200 445
e 200 446
e 200 447
e 200 448
e 200 449
e 200 450
e 200 451
e 200 452
e 200 455
e 200 456
e 201 202
e 201 203
e 201 205
e 201 207
e 201 208
e 201 209
e 201 211
e 201 213
e 201 215
e 201 216
e 201 217
e 201 219
e 201 220
e 201 222
e 201 223
e 201 225
e 201 229
e 201 230
e 201 231
e 201 232
e 201 233
e 201 234
e 201 235
e 201 236
e 201 237
e 201 239
e 201 240
e 201 241
e 201 242
e 201 243
e 201 244
e 201 245
e 201 248
e 201 249
e 201 251
e 201 252
e 201 254
e 201 255
e 201 256
e 201 257
e 201 260
e 201 261
e 201 263
e 201 264
e 201 265
e 201 266
e 201 267
e 201 268
e 201 269
e 201 270
e 201 271
e 201 272
e 201 273
e 201 274
e 201 275
e 201 276
e 201 277
e 201 278
e 201 279
e 201 280
e 201 283
e 201 284
e 201 285
e 201 286
e 201 287
e 201 288
e 201 289
e 201 290
e 201 292
e 201 293
e 201 294
e 201 295
e 201 296
e 201 297
e 201 298
e 201 301
e 201 302
e 201 303
e 201 305
e 201 307
e 201 308
e 201 309
e 201 310
e 201 312
e 201 313
e 201 315
e 201 316
e 201 317
e 201 318
e 201 320
e 201 321
e 201 322
e 201 323
e 201 325
e 201 326
e 201 328
e 201 329
e 201 330
e 201 331
e 201 333
e 201 334
e 201 335
e 201 336
e 201 337
e 201 338
e 201 339
e 201 340
e 201 343
e 201 344
e 201 345
e 201 347
e 201 349
e 201 351
e 201 352
e 201 354
e 201 356
e 201 357
e 201 359
e 201 360
e 201 362
e 201 364
e 201 365
e 201 366
e 201 367
e 201 368
e 201 372
e 201 376
e 201 377
e 201 378
e 201 382
e 201 384
e 201 385
e 201 386
e 201 388
e 201 389
e 201 390
e 201 391
e 201 393
e 201 394
e 201 395
e 201 396
e 201 398
e 201 399
e 201 401
e 201 402
e 201 403
e 201 405
e 201 406
e 201 407
e 201 408
e 201 409
e 201 413
e 201 414
e 201 416
e 201 419
e 201 420
e 201 422
e 201 423
e 201 424
e 201 425
e 201 426
e 201 427
e 201 428
e 201 429
e 201 430
e 201 433
e 201 434
e 201 435
e 201 436
e 201 437
e 201 438
e 201 439
e 201 440
e 201 441
e 201 442
e 201 443
e 201 446
e 201 447
e 201 448
e 201 449
e 201 450
e 201 451
e 201 452
e 201 454
e 201 455
e 201 456
e 201 774
e 202 208
e 202 215
e 202 243
e 202 244
e 202 245
e 202 280
e 202 289
e 202 290
e 202 326
e 202 329
e 202 335
e 202 343
e 202 372
e 202 376
e 202 405
e 202 436
e 202 446
e 202 448
e 203 204
e 203 205
e 203 207
e 203 208
e 203 209
e 203 210
e 203 211
e 203 212
e 203 213
e 203 215
e 203 216
e 203 217
e 203 218
e 203 219
e 203 220
e 203 221
e 203 222
e 203 223
e 203 224
e 203 225
e 203 226
e 203 234
e 203 235
e 203 236
e 203 237
e 203 238
e 203 239
e 203 240
e 203 241
e 203 242
e 203 243
e 203 244
e 203 245
e 203 246
e 203 249
e 203 251
e 203 254
e 203 255
e 203 256
e 203 257
e 203 258
e 203 260
e 203 261
e 203 262
e 203 265
e 203 266
e 203 267
e 203 268
e 203 269
e 203 271
e 203 272
e 203 273
e 203 277
e 203 279
e 203 280
e 203 281
e 203 283
e 203 285
e 203 286
e 203 289
e 203 290
e 203 291
e 203 292
e 203 295
e 203 296
e 203 297
e 203 298
e 203 299
e 203 300
e 203 303
e 203 304
e 203 306
e 203 307
e 203 308
e 203 309
e 203 312
e 203 313
e 203 317
e 203 318
e 203 319
e 203 320
e 203 321
e 203 325
e 203 327
e 203 329
e 203 331
e 203 334
e 203 335
e 203 336
e 203 337
e 203 338
e 203 341
e 203 342
e 203 343
e 203 344
e 203 345
e 203 347
e 203 350
e 203 351
e 203 352
e 203 354
e 203 355
e 203 357
e 203 360
e 203 361
e 203 362
e 203 363
e 203 364
e 203 365
e 203 366
e 203 368
e 203 369
e 203 371
e 203 373
e 203 374
e 203 375
e 203 377
e 203 378
e 203 379
e 203 380
e 203 381
e 203 382
e 203 383
e 203 384
e 203 385
e 203 388
e 203 389
e 203 390
e 203 391
e 203 393
e 203 394
e 203 395
e 203 396
e 203 398
e 203 399
e 203 400
e 203 401
e 203 402
e 203 403
e 203 404
e 203 405
e 203 407
e 203 408
e 203 409
e 203 410
e 203 411
e 203 412
e 203 413
e 203 414
e 203 415
e 203 418
e 203 419
e 203 420
e 203 421
e 203 422
e 203 423
e 203 424
e 203 425
e 203 426
e 203 427
e 203 428
e 203 429
e 203 430
e 203 432
e 203 433
e 203 434
e 203 435
e 203 436
e 203 437
e 203 438
e 203 439
e 203 440
e 203 441
e 203 442
e 203 443
e 203 445
e 203 446
e 203 448
e 203 449
e 203 450
e 203 451
e 203 452
e 203 453
e 203 454
e 203 455
e 203 456
e 203 457
e 203 460
e 203 461
e 203 467
e 203 470
e 203 471
e 203 473
e 203 475
e 203 476
e 203 477
e 203 478
e 203 479
e 203 480
e 203 481
e 203 484
e 203 486
e 203 489
e 203 491
e 203 493
e 203 496
e 203 497
e 203 498
e 203 499
e 203 502
e 203 505
e 203 508
e 203 513
e 203 514
e 203 515
e 203 516
e 203 518
e 203 521
e 203 530
e 203 531
e 203 532
e 203 533
e 203 534
e 203 537
e 203 540
e 203 545
e 203 546
e 203 551
e 203 552
e 203 558
e 203 562
e 203 563
e 203 564
e 203 567
e 203 568
e 203 569
e 203 570
e 203 571
e 203 573
e 203 575
e 203 576
e 203 577
e 203 578
e 203 579
e 203 581
e 203 582
e 203 583
e 203 587
e 203 588
e 203 593
e 203 595
e 203 596
e 203 599
e 203 604
e 203 606
e 203 607
e 203 609
e 203 610
e 203 618
e 203 619
e 203 620
e 203 621
e 203 622
e 203 623
e 203 624
e 203 625
e 203 626
e 203 627
e 203 632
e 203 633
e 203 635
e 203 636
e 203 640
e 203 642
e 203 643
e 203 644
e 203 645
e 203 646
e 203 648
e 203 650
e 203 651
e 203 652
e 203 655
e 203 656
e 203 657
e 203 658
e 203 659
e 203 660
e 203 661
e 203 662
e 203 663
e 203 664
e 203 665
e 203 668
e 203 669
e 203 671
e 203 674
e 203 675
e 203 678
e 203 679
e 203 680
e 203 681
e 203 682
e 203 684
e 203 688
e 203 690
e 203 691
e 203 692
e 203 693
e 203 694
e 203 695
e 203 696
e 203 698
e 203 700
e 203 701
e 203 702
e 203 703
e 203 705
e 203 706
e 203 707
e 203 708
e 203 709
e 203 710
e 203 712
e 203 713
e 203 714
e 203 715
e 203 716
e 203 717
e 203 718
e 203 719
e 203 720
e 203 723
e 203 724
e 203 725
e 203 726
e 203 727
e 203 728
e 203 729
e 203 730
e 203 731
e 203 732
e 203 733
e 203 734
e 203 735
e 203 736
e 203 737
e 203 738
e 203 739
e 203 740
e 203 741
e 203 742
e 203 743
e 203 744
e 203 747
e 203 748
e 203 749
e 203 750
e 203 751
e 203 753
e 203 754
e 203 755
e 203 757
e 203 758
e 203 759
e 203 760
e 203 761
e 203 762
e 203 764
e 203 765
e 203 766
e 203 767
e 203 768
e 203 769
e 203 770
e 203 771
e 203 772
e 203 773
e 203 774
e 203 775
e 203 776
e 203 777
e 204 208
e 204 209
e 204 216
e 204 236
e 204 251
e 204 254
e 204 273
e 204 286
e 204 298
e 204 300
e 204 307
e 204 308
e 204 338
e 204 345
e 204 350
e 204 352
e 204 371
e 204 391
e 204 402
e 204 428
e 204 432
e 204 438
e 204 455
e 204 460
e 204 467
e 204 468
e 204 471
e 204 476
e 204 477
e 204 479
e 204 486
e 204 491
e 204 496
e 204 497
e 204 498
e 204 499
e 204 513
e 204 514
e 204 520
e 204 527
e 204 530
e 204 552
e 204 563
e 204 568
e 204 571
e 204 572
e 204 574
e 204 577
e 204 580
e 204 583
e 204 587
e 204 590
e 204 607
e 204 621
e 204 625
e 204 626
e 204 637
e 204 646
e 204 651
e 204 663
e 204 676
e 204 678
e 204 681
e 204 684
e 204 691
e 204 696
e 204 701
e 204 707
e 204 714
e 204 734
e 204 741
e 204 743
e 204 747
e 204 749
e 204 750
e 204 761
e 204 765
e 204 767
e 204 769
e 204 777
e 205 207
e 205 208
e 205 209
e 205 212
e 205 213
e 205 215
e 205 216
e 205 218
e 205 219
e 205 220
e 205 222
e 205 223
e 205 225
e 205 226
e 205 228
e 205 236
e 205 238
e 205 240
e 205 241
e 205 243
e 205 245
e 205 249
e 205 251
e 205 252
e 205 253
e 205 254
e 205 256
e 205 257
e 205 260
e 205 261
e 205 265
e 205 267
e 205 272
e 205 273
e 205 277
e 205 279
e 205 280
e 205 281
e 205 283
e 205 284
e 205 286
e 205 289
e 205 291
e 205 298
e 205 299
e 205 300
e 205 303
e 205 304
e 205 305
e 205 307
e 205 312
e 205 313
e 205 314
e 205 317
e 205 318
e 205 319
e 205 320
e 205 321
e 205 325
e 205 326
e 205 333
e 205 334
e 205 335
e 205 336
e 205 337
e 205 338
e 205 343
e 205 345
e 205 346
e 205 347
e 205 349
e 205 350
e 205 352
e 205 354
e 205 357
e 205 362
e 205 368
e 205 371
e 205 376
e 205 377
e 205 378
e 205 382
e 205 389
e 205 394
e 205 395
e 205 396
e 205 398
e 205 399
e 205 402
e 205 403
e 205 404
e 205 405
e 205 407
e 205 409
e 205 413
e 205 414
e 205 415
e 205 420
e 205 422
e 205 423
e 205 424
e 205 425
e 205 426
e 205 428
e 205 429
e 205 430
e 205 433
e 205 434
e 205 435
e 205 436
e 205 437
e 205 438
e 205 440
e 205 442
e 205 443
e 205 444
e 205 445
e 205 448
e 205 451
e 205 455
e 205 460
e 205 475
e 205 484
e 205 491
e 205 509
e 205 510
e 205 511
e 205 512
e 205 513
e 205 515
e 205 516
e 205 521
e 205 537
e 205 551
e 205 568
e 205 571
e 205 578
e 205 582
e 205 583
e 205 599
e 205 610
e 205 615
e 205 617
e 205 621
e 205 623
e 205 636
e 205 651
e 205 662
e 205 663
e 205 696
e 205 707
e 205 731
e 205 739
e 205 772
e 205 773
e 206 209
e 206 220
e 206 222
e 206 231
e 206 232
e 206 244
e 206 280
e 206 282
e 206 333
e 206 359
e 206 360
e 206 362
e 206 377
e 206 412
e 206 422
e 206 438
e 207 209
e 207 212
e 207 213
e 207 215
e 207 217
e 207 218
e 207 220
e 207 222
e 207 223
e 207 230
e 207 233
e 207 234
e 207 235
e 207 236
e 207 237
e 207 240
e 207 244
e 207 249
e 207 254
e 207 257
e 207 258
e 207 261
e 207 262
e 207 264
e 207 266
e 207 267
e 207 268
e 207 270
e 207 271
e 207 272
e 207 273
e 207 276
e 207 277
e 207 279
e 207 280
e 207 283
e 207 285
e 207 286
e 207 287
e 207 289
e 207 295
e 207 296
e 207 298
e 207 307
e 207 310
e 207 312
e 207 319
e 207 320
e 207 321
e 207 325
e 207 328
e 207 330
e 207 331
e 207 334
e 207 335
e 207 336
e 207 338
e 207 339
e 207 341
e 207 343
e 207 347
e 207 349
e 207 354
e 207 356
e 207 357
e 207 362
e 207 364
e 207 365
e 207 366
e 207 368
e 207 375
e 207 378
e 207 381
e 207 389
e 207 391
e 207 398
e 207 401
e 207 402
e 207 403
e 207 406
e 207 407
e 207 408
e 207 409
e 207 413
e 207 414
e 207 416
e 207 425
e 207 426
e 207 428
e 207 433
e 207 435
e 207 438
e 207 440
e 207 442
e 207 443
e 207 451
e 207 454
e 207 774
e 208 209
e 208 210
e 208 213
e 208 215
e 208 216
e 208 217
e 208 218
e 208 219
e 208 220
e 208 222
e 208 223
e 208 225
e 208 226
e 208 227
e 208 228
e 208 229
e 208 231
e 208 236
e 208 238
e 208 239
e 208 240
e 208 241
e 208 242
e 208 243
e 208 244
e 208 245
e 208 246
e 208 249
e 208 251
e 208 253
e 208 254
e 208 255
e 208 256
e 208 257
e 208 258
e 208 260
e 208 263
e 208 265
e 208 266
e 208 271
e 208 272
e 208 273
e 208 274
e 208 275
e 208 276
e 208 277
e 208 278
e 208 279
e 208 280
e 208 283
e 208 284
e 208 285
e 208 287
e 208 288
e 208 289
e 208 290
e 208 291
e 208 292
e 208 293
e 208 294
e 208 297
e 208 298
e 208 299
e 208 300
e 208 301
e 208 302
e 208 303
e 208 304
e 208 305
e 208 307
e 208 308
e 208 309
e 208 310
e 208 312
e 208 313
e 208 314
e 208 315
e 208 317
e 208 318
e 208 319
e 208 320
e 208 321
e 208 322
e 208 323
e 208 325
e 208 326
e 208 327
e 208 329
e 208 333
e 208 335
e 208 336
e 208 337
e 208 338
e 208 340
e 208 341
e 208 342
e 208 343
e 208 344
e 208 345
e 208 346
e 208 347
e 208 349
e 208 350
e 208 351
e 208 352
e 208 353
e 208 354
e 208 355
e 208 356
e 208 358
e 208 361
e 208 362
e 208 363
e 208 364
e 208 365
e 208 367
e 208 368
e 208 369
e 208 370
e 208 371
e 208 372
e 208 373
e 208 374
e 208 375
e 208 376
e 208 377
e 208 378
e 208 379
e 208 380
e 208 381
e 208 382
e 208 383
e 208 384
e 208 385
e 208 391
e 208 393
e 208 394
e 208 395
e 208 396
e 208 399
e 208 401
e 208 402
e 208 404
e 208 405
e 208 406
e 208 407
e 208 408
e 208 409
e 208 410
e 208 412
e 208 413
e 208 415
e 208 416
e 208 417
e 208 419
e 208 420
e 208 421
e 208 422
e 208 423
e 208 424
e 208 425
e 208 427
e 208 428
e 208 429
e 208 430
e 208 431
e 208 432
e 208 434
e 208 435
e 208 436
e 208 437
e 208 438
e 208 439
e 208 440
e 208 441
e 208 442
e 208 443
e 208 444
e 208 445
e 208 446
e 208 447
e 208 448
e 208 449
e 208 450
e 208 451
e 208 453
e 208 455
e 208 456
e 208 457
e 208 460
e 208 461
e 208 462
e 208 464
e 208 465
e 208 466
e 208 467
e 208 468
e 208 469
e 208 470
e 208 471
e 208 472
e 208 473
e 208 474
e 208 475
e 208 476
e 208 477
e 208 478
e 208 479
e 208 480
e 208 481
e 208 482
e 208 483
e 208 484
e 208 485
e 208 486
e 208 488
e 208 489
e 208 491
e 208 494
e 208 495
e 208 496
e 208 498
e 208 502
e 208 503
e 208 504
e 208 505
e 208 506
e 208 509
e 208 510
e 208 511
e 208 512
e 208 513
e 208 514
e 208 515
e 208 516
e 208 518
e 208 519
e 208 521
e 208 523
e 208 525
e 208 526
e 208 528
e 208 529
e 208 530
e 208 531
e 208 532
e 208 533
e 208 534
e 208 535
e 208 537
e 208 544
e 208 545
e 208 546
e 208 547
e 208 548
e 208 551
e 208 552
e 208 554
e 208 555
e 208 558
e 208 559
e 208 562
e 208 563
e 208 564
e 208 565
e 208 567
e 208 568
e 208 569
e 208 570
e 208 571
e 208 572
e 208 573
e 208 574
e 208 576
e 208 577
e 208 578
e 208 579
e 208 580
e 208 581
e 208 582
e 208 583
e 208 592
e 208 593
e 208 594
e 208 595
e 208 596
e 208 597
e 208 598
e 208 599
e 208 600
e 208 606
e 208 607
e 208 609
e 208 610
e 208 611
e 208 613
e 208 615
e 208 616
e 208 617
e 208 621
e 208 622
e 208 623
e 208 624
e 208 626
e 208 627
e 208 632
e 208 633
e 208 636
e 208 637
e 208 640
e 208 644
e 208 645
e 208 646
e 208 647
e 208 648
e 208 649
e 208 651
e 208 652
e 208 653
e 208 655
e 208 656
e 208 657
e 208 658
e 208 659
e 208 661
e 208 662
e 208 663
e 208 664
e 208 665
e 208 666
e 208 667
e 208 668
e 208 671
e 208 675
e 208 676
e 208 679
e 208 680
e 208 681
e 208 682
e 208 684
e 208 690
e 208 691
e 208 692
e 208 693
e 208 694
e 208 695
e 208 696
e 208 698
e 208 699
e 208 700
e 208 701
e 208 702
e 208 703
e 208 706
e 208 707
e 208 709
e 208 710
e 208 711
e 208 712
e 208 713
e 208 714
e 208 715
e 208 716
e 208 717
e 208 718
e 208 719
e 208 720
e 208 726
e 208 727
e 208 728
e 208 729
e 208 731
e 208 733
e 208 734
e 208 735
e 208 737
e 208 738
e 208 739
e 208 740
e 208 741
e 208 743
e 208 745
e 208 746
e 208 747
e 208 749
e 208 751
e 208 754
e 208 755
e 208 756
e 208 757
e 208 759
e 208 760
e 208 761
e 208 762
e 208 763
e 208 764
e 208 765
e 208 767
e 208 768
e 208 769
e 208 770
e 208 771
e 208 772
e 208 773
e 208 775
e 208 778
e 209 210
e 209 211
e 209 213
e 209 215
e 209 217
e 209 218
e 209 220
e 209 222
e 209 223
e 209 224
e 209 226
e 209 228
e 209 231
e 209 232
e 209 233
e 209 234
e 209 235
e 209 236
e 209 237
e 209 240
e 209 241
e 209 242
e 209 243
e 209 244
e 209 245
e 209 246
e 209 248
e 209 249
e 209 251
e 209 252
e 209 254
e 209 255
e 209 256
e 209 257
e 209 258
e 209 260
e 209 262
e 209 264
e 209 265
e 209 266
e 209 267
e 209 268
e 209 269
e 209 270
e 209 271
e 209 272
e 209 273
e 209 274
e 209 275
e 209 276
e 209 277
e 209 278
e 209 279
e 209 280
e 209 282
e 209 283
e 209 284
e 209 285
e 209 286
e 209 288
e 209 289
e 209 290
e 209 291
e 209 292
e 209 293
e 209 295
e 209 296
e 209 297
e 209 298
e 209 299
e 209 300
e 209 301
e 209 302
e 209 303
e 209 304
e 209 305
e 209 306
e 209 307
e 209 308
e 209 309
e 209 310
e 209 311
e 209 312
e 209 315
e 209 316
e 209 317
e 209 318
e 209 319
e 209 320
e 209 321
e 209 322
e 209 323
e 209 325
e 209 326
e 209 327
e 209 328
e 209 329
e 209 330
e 209 333
e 209 334
e 209 335
e 209 336
e 209 337
e 209 338
e 209 339
e 209 340
e 209 341
e 209 342
e 209 343
e 209 344
e 209 345
e 209 347
e 209 349
e 209 350
e 209 352
e 209 353
e 209 354
e 209 355
e 209 356
e 209 357
e 209 359
e 209 360
e 209 361
e 209 362
e 209 363
e 209 365
e 209 366
e 209 367
e 209 368
e 209 369
e 209 370
e 209 371
e 209 372
e 209 373
e 209 374
e 209 375
e 209 376
e 209 377
e 209 378
e 209 379
e 209 380
e 209 381
e 209 382
e 209 383
e 209 384
e 209 385
e 209 386
e 209 387
e 209 388
e 209 389
e 209 390
e 209 391
e 209 392
e 209 393
e 209 398
e 209 399
e 209 400
e 209 401
e 209 402
e 209 403
e 209 404
e 209 405
e 209 406
e 209 407
e 209 408
e 209 409
e 209 410
e 209 412
e 209 413
e 209 414
e 209 416
e 209 417
e 209 418
e 209 419
e 209 420
e 209 422
e 209 423
e 209 424
e 209 426
e 209 427
e 209 428
e 209 432
e 209 433
e 209 434
e 209 435
e 209 436
e 209 437
e 209 438
e 209 439
e 209 440
e 209 441
e 209 442
e 209 443
e 209 444
e 209 445
e 209 446
e 209 447
e 209 448
e 209 449
e 209 450
e 209 451
e 209 452
e 209 454
e 209 455
e 209 456
e 209 457
e 209 460
e 209 461
e 209 462
e 209 467
e 209 471
e 209 475
e 209 476
e 209 477
e 209 478
e 209 479
e 209 480
e 209 481
e 209 484
e 209 491
e 209 496
e 209 497
e 209 498
e 209 499
e 209 502
e 209 505
e 209 508
e 209 513
e 209 514
e 209 515
e 209 516
e 209 520
e 209 521
e 209 522
e 209 527
e 209 530
e 209 537
e 209 539
e 209 540
e 209 543
e 209 545
e 209 546
e 209 551
e 209 563
e 209 568
e 209 570
e 209 577
e 209 581
e 209 582
e 209 583
e 209 584
e 209 585
e 209 587
e 209 590
e 209 593
e 209 599
e 209 602
e 209 603
e 209 607
e 209 612
e 209 615
e 209 616
e 209 618
e 209 619
e 209 620
e 209 621
e 209 622
e 209 623
e 209 625
e 209 626
e 209 629
e 209 633
e 209 638
e 209 639
e 209 640
e 209 641
e 209 642
e 209 643
e 209 644
e 209 645
e 209 646
e 209 647
e 209 648
e 209 651
e 209 653
e 209 654
e 209 658
e 209 660
e 209 662
e 209 663
e 209 669
e 209 670
e 209 671
e 209 672
e 209 673
e 209 678
e 209 679
e 209 681
e 209 682
e 209 684
e 209 686
e 209 687
e 209 690
e 209 691
e 209 696
e 209 700
e 209 704
e 209 705
e 209 707
e 209 708
e 209 711
e 209 715
e 209 716
e 209 720
e 209 721
e 209 724
e 209 725
e 209 731
e 209 732
e 209 734
e 209 736
e 209 738
e 209 740
e 209 741
e 209 742
e 209 744
e 209 745
e 209 747
e 209 748
e 209 750
e 209 751
e 209 752
e 209 753
e 209 754
e 209 759
e 209 761
e 209 762
e 209 765
e 209 766
e 209 769
e 209 770
e 209 771
e 209 772
e 209 773
e 209 774
e 209 776
e 209 777
e 209 778
e 210 216
e 210 217
e 210 232
e 210 234
e 210 236
e 210 240
e 210 247
e 210 248
e 210 250
e 210 251
e 210 254
e 210 255
e 210 258
e 210 259
e 210 272
e 210 276
e 210 280
e 210 283
e 210 286
e 210 298
e 210 311
e 210 320
e 210 327
e 210 328
e 210 329
e 210 364
e 210 373
e 210 374
e 210 383
e 210 400
e 210 406
e 210 411
e 210 416
e 210 424
e 210 426
e 210 428
e 210 432
e 210 436
e 210 437
e 210 438
e 210 447
e 210 449
e 210 450
e 210 456
e 210 468
e 210 486
e 210 489
e 210 493
e 210 502
e 210 513
e 210 514
e 210 530
e 210 545
e 210 547
e 210 549
e 210 551
e 210 558
e 210 571
e 210 589
e 210 594
e 210 596
e 210 599
e 210 613
e 210 615
e 210 622
e 210 626
e 210 642
e 210 646
e 210 648
e 210 649
e 210 652
e 210 657
e 210 658
e 210 664
e 210 669
e 210 682
e 210 683
e 210 684
e 210 685
e 210 690
e 210 694
e 210 714
e 210 715
e 210 731
e 210 761
e 210 776
e 211 213
e 211 215
e 211 220
e 211 222
e 211 233
e 211 236
e 211 237
e 211 240
e 211 244
e 211 245
e 211 254
e 211 256
e 211 262
e 211 272
e 211 273
e 211 275
e 211 279
e 211 280
e 211 283
e 211 285
e 211 289
e 211 295
e 211 296
e 211 297
e 211 298
e 211 310
e 211 317
e 211 320
e 211 325
e 211 338
e 211 347
e 211 357
e 211 366
e 211 371
e 211 374
e 211 392
e 211 402
e 211 405
e 211 409
e 211 410
e 211 420
e 211 423
e 211 425
e 211 426
e 211 427
e 211 437
e 211 442
e 211 449
e 211 451
e 211 452
e 211 774
e 212 215
e 212 222
e 212 236
e 212 240
e 212 277
e 212 279
e 212 280
e 212 298
e 212 310
e 212 312
e 212 320
e 212 325
e 212 336
e 212 343
e 212 354
e 212 357
e 212 368
e 212 402
e 212 409
e 212 414
e 212 419
e 212 426
e 212 433
e 212 435
e 212 440
e 212 443
e 213 215
e 213 216
e 213 217
e 213 219
e 213 220
e 213 222
e 213 225
e 213 227
e 213 233
e 213 234
e 213 236
e 213 237
e 213 239
e 213 240
e 213 241
e 213 243
e 213 245
e 213 248
e 213 249
e 213 251
e 213 252
e 213 253
e 213 254
e 213 255
e 213 256
e 213 257
e 213 262
e 213 265
e 213 268
e 213 269
e 213 272
e 213 273
e 213 277
e 213 279
e 213 280
e 213 283
e 213 285
e 213 286
e 213 287
e 213 289
e 213 291
e 213 292
e 213 293
e 213 294
e 213 295
e 213 297
e 213 299
e 213 300
e 213 305
e 213 308
e 213 309
e 213 310
e 213 313
e 213 318
e 213 319
e 213 320
e 213 321
e 213 322
e 213 325
e 213 326
e 213 329
e 213 336
e 213 337
e 213 338
e 213 345
e 213 346
e 213 347
e 213 354
e 213 360
e 213 362
e 213 366
e 213 368
e 213 371
e 213 374
e 213 377
e 213 378
e 213 382
e 213 385
e 213 389
e 213 391
e 213 394
e 213 395
e 213 396
e 213 401
e 213 402
e 213 403
e 213 404
e 213 405
e 213 406
e 213 407
e 213 409
e 213 410
e 213 413
e 213 415
e 213 420
e 213 422
e 213 423
e 213 424
e 213 425
e 213 428
e 213 429
e 213 430
e 213 433
e 213 434
e 213 437
e 213 448
e 213 450
e 213 451
e 213 452
e 213 454
e 213 455
e 214 220
e 214 224
e 214 240
e 214 245
e 214 249
e 214 254
e 214 265
e 214 272
e 214 280
e 214 285
e 214 286
e 214 306
e 214 317
e 214 321
e 214 331
e 214 335
e 214 347
e 214 362
e 214 364
e 214 366
e 214 387
e 214 390
e 214 417
e 214 428
e 214 435
e 214 442
e 214 452
e 214 454
e 214 456
e 215 220
e 215 222
e 215 224
e 215 234
e 215 235
e 215 236
e 215 237
e 215 240
e 215 243
e 215 244
e 215 245
e 215 249
e 215 254
e 215 256
e 215 261
e 215 262
e 215 265
e 215 271
e 215 272
e 215 273
e 215 277
e 215 279
e 215 280
e 215 283
e 215 285
e 215 286
e 215 289
e 215 290
e 215 295
e 215 296
e 215 297
e 215 298
e 215 306
e 215 310
e 215 312
e 215 317
e 215 320
e 215 321
e 215 325
e 215 326
e 215 329
e 215 334
e 215 335
e 215 336
e 215 338
e 215 343
e 215 346
e 215 347
e 215 354
e 215 357
e 215 366
e 215 368
e 215 371
e 215 372
e 215 373
e 215 376
e 215 385
e 215 389
e 215 390
e 215 391
e 215 398
e 215 402
e 215 403
e 215 405
e 215 407
e 215 408
e 215 409
e 215 410
e 215 414
e 215 415
e 215 419
e 215 423
e 215 425
e 215 426
e 215 428
e 215 433
e 215 435
e 215 436
e 215 438
e 215 440
e 215 442
e 215 443
e 215 446
e 215 448
e 215 452
e 215 454
e 215 456
e 216 217
e 216 218
e 216 219
e 216 220
e 216 222
e 216 225
e 216 226
e 216 227
e 216 229
e 216 236
e 216 238
e 216 239
e 216 240
e 216 241
e 216 243
e 216 244
e 216 245
e 216 249
e 216 251
e 216 253
e 216 254
e 216 255
e 216 256
e 216 257
e 216 258
e 216 263
e 216 265
e 216 266
e 216 267
e 216 271
e 216 272
e 216 273
e 216 275
e 216 279
e 216 280
e 216 281
e 216 283
e 216 285
e 216 286
e 216 287
e 216 289
e 216 291
e 216 292
e 216 293
e 216 294
e 216 297
e 216 298
e 216 299
e 216 300
e 216 301
e 216 303
e 216 304
e 216 305
e 216 307
e 216 309
e 216 313
e 216 314
e 216 315
e 216 318
e 216 319
e 216 320
e 216 321
e 216 322
e 216 325
e 216 327
e 216 329
e 216 333
e 216 337
e 216 338
e 216 342
e 216 344
e 216 345
e 216 346
e 216 347
e 216 349
e 216 350
e 216 351
e 216 352
e 216 354
e 216 356
e 216 362
e 216 364
e 216 368
e 216 373
e 216 376
e 216 381
e 216 382
e 216 383
e 216 385
e 216 388
e 216 391
e 216 393
e 216 399
e 216 400
e 216 402
e 216 404
e 216 405
e 216 407
e 216 410
e 216 411
e 216 413
e 216 415
e 216 421
e 216 422
e 216 424
e 216 425
e 216 427
e 216 428
e 216 429
e 216 430
e 216 431
e 216 432
e 216 435
e 216 436
e 216 437
e 216 438
e 216 439
e 216 441
e 216 444
e 216 445
e 216 446
e 216 448
e 216 453
e 216 455
e 216 456
e 216 460
e 216 461
e 216 462
e 216 463
e 216 467
e 216 468
e 216 470
e 216 471
e 216 473
e 216 475
e 216 476
e 216 477
e 216 478
e 216 479
e 216 480
e 216 481
e 216 484
e 216 485
e 216 486
e 216 488
e 216 489
e 216 491
e 216 494
e 216 495
e 216 496
e 216 498
e 216 502
e 216 505
e 216 509
e 216 510
e 216 511
e 216 512
e 216 513
e 216 514
e 216 515
e 216 516
e 216 525
e 216 529
e 216 530
e 216 531
e 216 532
e 216 533
e 216 534
e 216 535
e 216 536
e 216 537
e 216 544
e 216 545
e 216 546
e 216 547
e 216 549
e 216 550
e 216 551
e 216 552
e 216 554
e 216 555
e 216 558
e 216 559
e 216 562
e 216 563
e 216 564
e 216 565
e 216 566
e 216 567
e 216 568
e 216 569
e 216 570
e 216 571
e 216 572
e 216 573
e 216 574
e 216 575
e 216 576
e 216 577
e 216 578
e 216 579
e 216 580
e 216 581
e 216 583
e 216 586
e 216 589
e 216 592
e 216 593
e 216 594
e 216 595
e 216 599
e 216 601
e 216 606
e 216 607
e 216 609
e 216 612
e 216 613
e 216 615
e 216 616
e 216 617
e 216 621
e 216 622
e 216 623
e 216 624
e 216 626
e 216 627
e 216 632
e 216 633
e 216 636
e 216 637
e 216 640
e 216 641
e 216 642
e 216 646
e 216 648
e 216 649
e 216 650
e 216 651
e 216 652
e 216 654
e 216 655
e 216 656
e 216 657
e 216 658
e 216 659
e 216 660
e 216 661
e 216 662
e 216 663
e 216 665
e 216 666
e 216 667
e 216 668
e 216 671
e 216 675
e 216 676
e 216 677
e 216 678
e 216 679
e 216 680
e 216 681
e 216 682
e 216 684
e 216 687
e 216 691
e 216 692
e 216 693
e 216 694
e 216 695
e 216 696
e 216 698
e 216 699
e 216 700
e 216 701
e 216 702
e 216 703
e 216 706
e 216 707
e 216 709
e 216 711
e 216 712
e 216 713
e 216 714
e 216 715
e 216 716
e 216 717
e 216 718
e 216 720
e 216 722
e 216 723
e 216 725
e 216 726
e 216 731
e 216 733
e 216 734
e 216 735
e 216 738
e 216 740
e 216 741
e 216 743
e 216 745
e 216 746
e 216 749
e 216 752
e 216 754
e 216 755
e 216 756
e 216 757
e 216 758
e 216 759
e 216 760
e 216 761
e 216 763
e 216 764
e 216 765
e 216 767
e 216 768
e 216 769
e 216 770
e 216 771
e 216 772
e 216 773
e 216 774
e 216 776
e 216 777
e 217 218
e 217 220
e 217 222
e 217 223
e 217 224
e 217 225
e 217 228
e 217 229
e 217 231
e 217 232
e 217 234
e 217 236
e 217 239
e 217 241
e 217 243
e 217 244
e 217 245
e 217 247
e 217 248
e 217 249
e 217 250
e 217 251
e 217 252
e 217 254
e 217 257
e 217 259
e 217 260
e 217 263
e 217 264
e 217 265
e 217 266
e 217 267
e 217 268
e 217 270
e 217 272
e 217 273
e 217 275
e 217 276
e 217 277
e 217 278
e 217 279
e 217 280
e 217 282
e 217 283
e 217 284
e 217 285
e 217 286
e 217 288
e 217 289
e 217 292
e 217 298
e 217 301
e 217 302
e 217 303
e 217 305
e 217 306
e 217 307
e 217 310
e 217 311
e 217 313
e 217 314
e 217 315
e 217 317
e 217 318
e 217 320
e 217 321
e 217 323
e 217 324
e 217 325
e 217 326
e 217 327
e 217 328
e 217 329
e 217 330
e 217 332
e 217 333
e 217 335
e 217 336
e 217 337
e 217 338
e 217 339
e 217 342
e 217 344
e 217 345
e 217 347
e 217 348
e 217 349
e 217 350
e 217 351
e 217 352
e 217 354
e 217 356
e 217 357
e 217 362
e 217 363
e 217 364
e 217 365
e 217 366
e 217 367
e 217 368
e 217 371
e 217 372
e 217 374
e 217 376
e 217 377
e 217 378
e 217 382
e 217 383
e 217 386
e 217 387
e 217 389
e 217 390
e 217 393
e 217 397
e 217 398
e 217 401
e 217 402
e 217 403
e 217 406
e 217 407
e 217 408
e 217 410
e 217 413
e 217 415
e 217 416
e 217 417
e 217 420
e 217 422
e 217 423
e 217 425
e 217 426
e 217 427
e 217 428
e 217 433
e 217 435
e 217 436
e 217 437
e 217 438
e 217 439
e 217 440
e 217 442
e 217 444
e 217 445
e 217 446
e 217 447
e 217 449
e 217 450
e 217 451
e 217 452
e 217 454
e 217 455
e 217 456
e 217 774
e 218 220
e 218 222
e 218 224
e 218 226
e 218 231
e 218 236
e 218 238
e 218 244
e 218 246
e 218 249
e 218 251
e 218 254
e 218 255
e 218 258
e 218 260
e 218 262
e 218 265
e 218 267
e 218 271
e 218 272
e 218 273
e 218 276
e 218 279
e 218 280
e 218 282
e 218 283
e 218 286
e 218 291
e 218 297
e 218 298
e 218 304
e 218 307
e 218 309
e 218 310
e 218 312
e 218 319
e 218 320
e 218 321
e 218 327
e 218 329
e 218 330
e 218 338
e 218 339
e 218 341
e 218 345
e 218 349
e 218 350
e 218 354
e 218 356
e 218 358
e 218 362
e 218 364
e 218 365
e 218 371
e 218 373
e 218 374
e 218 381
e 218 382
e 218 383
e 218 391
e 218 399
e 218 403
e 218 405
e 218 407
e 218 410
e 218 411
e 218 416
e 218 421
e 218 427
e 218 428
e 218 431
e 218 432
e 218 435
e 218 436
e 218 438
e 218 446
e 218 447
e 218 449
e 218 455
e 218 456
e 218 457
e 218 458
e 218 459
e 218 460
e 218 461
e 218 462
e 218 467
e 218 470
e 218 471
e 218 472
e 218 473
e 218 474
e 218 475
e 218 476
e 218 477
e 218 478
e 218 479
e 218 480
e 218 481
e 218 482
e 218 483
e 218 484
e 218 485
e 218 486
e 218 489
e 218 491
e 218 493
e 218 498
e 218 501
e 218 502
e 218 505
e 218 508
e 218 509
e 218 510
e 218 511
e 218 512
e 218 513
e 218 514
e 218 515
e 218 516
e 218 517
e 218 518
e 218 521
e 218 523
e 218 524
e 218 525
e 218 526
e 218 528
e 218 529
e 218 537
e 218 545
e 218 546
e 218 548
e 218 551
e 218 560
e 218 563
e 218 566
e 218 568
e 218 570
e 218 571
e 218 577
e 218 578
e 218 580
e 218 581
e 218 582
e 218 583
e 218 584
e 218 587
e 218 592
e 218 593
e 218 595
e 218 599
e 218 607
e 218 610
e 218 614
e 218 615
e 218 616
e 218 617
e 218 618
e 218 619
e 218 620
e 218 621
e 218 623
e 218 624
e 218 626
e 218 627
e 218 632
e 218 633
e 218 636
e 218 640
e 218 642
e 218 643
e 218 645
e 218 646
e 218 647
e 218 648
e 218 651
e 218 659
e 218 661
e 218 662
e 218 663
e 218 664
e 218 677
e 218 678
e 218 679
e 218 680
e 218 681
e 218 682
e 218 684
e 218 688
e 218 690
e 218 691
e 218 692
e 218 695
e 218 696
e 218 697
e 218 699
e 218 700
e 218 702
e 218 704
e 218 705
e 218 706
e 218 707
e 218 709
e 218 710
e 218 712
e 218 713
e 218 714
e 218 715
e 218 716
e 218 717
e 218 718
e 218 720
e 218 723
e 218 725
e 218 730
e 218 731
e 218 732
e 218 733
e 218 734
e 218 735
e 218 739
e 218 740
e 218 741
e 218 743
e 218 744
e 218 746
e 218 749
e 218 751
e 218 753
e 218 754
e 218 755
e 218 756
e 218 757
e 218 761
e 218 765
e 218 766
e 218 770
e 218 772
e 218 773
e 218 776
e 218 777
e 219 225
e 219 227
e 219 230
e 219 239
e 219 240
e 219 243
e 219 245
e 219 249
e 219 254
e 219 255
e 219 256
e 219 257
e 219 272
e 219 273
e 219 279
e 219 280
e 219 281
e 219 283
e 219 285
e 219 286
e 219 287
e 219 289
e 219 293
e 219 294
e 219 299
e 219 300
e 219 303
e 219 305
e 219 313
e 219 314
e 219 318
e 219 321
e 219 322
e 219 325
e 219 333
e 219 337
e 219 338
e 219 345
e 219 346
e 219 347
e 219 351
e 219 352
e 219 362
e 219 368
e 219 376
e 219 382
e 219 388
e 219 402
e 219 404
e 219 405
e 219 407
e 219 413
e 219 415
e 219 424
e 219 425
e 219 429
e 219 430
e 219 437
e 219 439
e 219 441
e 219 444
e 219 445
e 219 450
e 219 774
e 220 222
e 220 223
e 220 224
e 220 226
e 220 228
e 220 231
e 220 232
e 220 233
e 220 234
e 220 235
e 220 236
e 220 237
e 220 238
e 220 240
e 220 241
e 220 243
e 220 244
e 220 245
e 220 249
e 220 251
e 220 254
e 220 255
e 220 256
e 220 257
e 220 258
e 220 260
e 220 262
e 220 265
e 220 267
e 220 271
e 220 272
e 220 273
e 220 279
e 220 280
e 220 282
e 220 283
e 220 285
e 220 286
e 220 288
e 220 289
e 220 291
e 220 295
e 220 296
e 220 297
e 220 298
e 220 301
e 220 304
e 220 305
e 220 306
e 220 307
e 220 308
e 220 309
e 220 310
e 220 312
e 220 313
e 220 316
e 220 317
e 220 318
e 220 319
e 220 320
e 220 321
e 220 322
e 220 325
e 220 326
e 220 327
e 220 329
e 220 330
e 220 331
e 220 333
e 220 334
e 220 335
e 220 337
e 220 338
e 220 339
e 220 340
e 220 341
e 220 342
e 220 345
e 220 347
e 220 349
e 220 350
e 220 354
e 220 356
e 220 359
e 220 360
e 220 361
e 220 362
e 220 363
e 220 364
e 220 365
e 220 366
e 220 367
e 220 368
e 220 369
e 220 370
e 220 371
e 220 372
e 220 375
e 220 377
e 220 379
e 220 380
e 220 381
e 220 382
e 220 383
e 220 386
e 220 387
e 220 390
e 220 391
e 220 398
e 220 399
e 220 400
e 220 402
e 220 407
e 220 409
e 220 410
e 220 412
e 220 413
e 220 414
e 220 416
e 220 417
e 220 419
e 220 421
e 220 422
e 220 423
e 220 428
e 220 432
e 220 434
e 220 435
e 220 436
e 220 437
e 220 438
e 220 439
e 220 440
e 220 441
e 220 442
e 220 443
e 220 444
e 220 446
e 220 447
e 220 449
e 220 452
e 220 454
e 220 455
e 220 456
e 220 457
e 220 460
e 220 461
e 220 462
e 220 463
e 220 467
e 220 475
e 220 476
e 220 477
e 220 479
e 220 480
e 220 481
e 220 484
e 220 485
e 220 486
e 220 489
e 220 491
e 220 496
e 220 498
e 220 501
e 220 502
e 220 505
e 220 513
e 220 514
e 220 515
e 220 516
e 220 518
e 220 519
e 220 521
e 220 525
e 220 530
e 220 535
e 220 537
e 220 546
e 220 551
e 220 557
e 220 562
e 220 563
e 220 568
e 220 570
e 220 571
e 220 577
e 220 578
e 220 579
e 220 581
e 220 582
e 220 583
e 220 584
e 220 591
e 220 593
e 220 599
e 220 602
e 220 605
e 220 607
e 220 608
e 220 610
e 220 615
e 220 616
e 220 617
e 220 618
e 220 619
e 220 621
e 220 622
e 220 623
e 220 624
e 220 626
e 220 633
e 220 636
e 220 640
e 220 642
e 220 645
e 220 646
e 220 651
e 220 653
e 220 659
e 220 660
e 220 662
e 220 663
e 220 666
e 220 669
e 220 670
e 220 671
e 220 672
e 220 675
e 220 677
e 220 678
e 220 679
e 220 680
e 220 681
e 220 682
e 220 684
e 220 685
e 220 687
e 220 688
e 220 690
e 220 692
e 220 696
e 220 704
e 220 705
e 220 706
e 220 709
e 220 710
e 220 711
e 220 712
e 220 713
e 220 715
e 220 717
e 220 718
e 220 721
e 220 722
e 220 725
e 220 731
e 220 732
e 220 734
e 220 735
e 220 738
e 220 739
e 220 740
e 220 741
e 220 742
e 220 744
e 220 745
e 220 746
e 220 748
e 220 751
e 220 752
e 220 753
e 220 754
e 220 756
e 220 757
e 220 758
e 220 759
e 220 760
e 220 761
e 220 762
e 220 763
e 220 769
e 220 770
e 220 771
e 220 772
e 220 774
e 220 776
e 220 777
e 220 778
e 221 240
e 221 251
e 221 258
e 221 280
e 221 400
e 221 411
e 221 428
e 221 435
e 221 448
e 221 455
e 221 478
e 221 486
e 221 502
e 221 514
e 221 545
e 221 552
e 221 558
e 221 564
e 221 571
e 221 581
e 221 596
e 221 642
e 221 652
e 221 656
e 221 657
e 221 664
e 221 665
e 221 680
e 221 690
e 222 223
e 222 224
e 222 225
e 222 227
e 222 228
e 222 229
e 222 230
e 222 231
e 222 232
e 222 233
e 222 234
e 222 235
e 222 236
e 222 237
e 222 239
e 222 240
e 222 241
e 222 242
e 222 243
e 222 244
e 222 245
e 222 249
e 222 251
e 222 254
e 222 255
e 222 256
e 222 257
e 222 258
e 222 260
e 222 261
e 222 262
e 222 263
e 222 264
e 222 265
e 222 266
e 222 267
e 222 268
e 222 269
e 222 270
e 222 271
e 222 272
e 222 273
e 222 274
e 222 275
e 222 276
e 222 277
e 222 278
e 222 279
e 222 280
e 222 282
e 222 283
e 222 284
e 222 285
e 222 286
e 222 287
e 222 289
e 222 292
e 222 293
e 222 294
e 222 295
e 222 296
e 222 297
e 222 298
e 222 299
e 222 300
e 222 301
e 222 304
e 222 306
e 222 307
e 222 308
e 222 309
e 222 310
e 222 312
e 222 313
e 222 316
e 222 317
e 222 318
e 222 319
e 222 320
e 222 321
e 222 323
e 222 324
e 222 325
e 222 326
e 222 327
e 222 328
e 222 329
e 222 330
e 222 332
e 222 333
e 222 334
e 222 335
e 222 336
e 222 337
e 222 338
e 222 339
e 222 340
e 222 341
e 222 342
e 222 343
e 222 344
e 222 345
e 222 346
e 222 347
e 222 349
e 222 350
e 222 353
e 222 354
e 222 356
e 222 357
e 222 359
e 222 360
e 222 361
e 222 362
e 222 363
e 222 364
e 222 365
e 222 366
e 222 368
e 222 371
e 222 372
e 222 373
e 222 374
e 222 375
e 222 376
e 222 377
e 222 378
e 222 379
e 222 381
e 222 382
e 222 383
e 222 384
e 222 385
e 222 387
e 222 389
e 222 390
e 222 391
e 222 392
e 222 393
e 222 394
e 222 395
e 222 396
e 222 398
e 222 399
e 222 401
e 222 402
e 222 403
e 222 404
e 222 405
e 222 406
e 222 407
e 222 408
e 222 409
e 222 410
e 222 412
e 222 413
e 222 414
e 222 415
e 222 416
e 222 417
e 222 418
e 222 419
e 222 420
e 222 422
e 222 423
e 222 424
e 222 425
e 222 426
e 222 427
e 222 428
e 222 429
e 222 430
e 222 432
e 222 433
e 222 434
e 222 435
e 222 436
e 222 437
e 222 438
e 222 439
e 222 440
e 222 441
e 222 442
e 222 443
e 222 444
e 222 445
e 222 446
e 222 447
e 222 448
e 222 450
e 222 451
e 222 452
e 222 454
e 222 456
e 222 461
e 222 462
e 222 468
e 222 475
e 222 477
e 222 481
e 222 486
e 222 489
e 222 491
e 222 494
e 222 495
e 222 505
e 222 514
e 222 516
e 222 536
e 222 537
e 222 544
e 222 545
e 222 552
e 222 559
e 222 563
e 222 567
e 222 569
e 222 570
e 222 571
e 222 573
e 222 576
e 222 577
e 222 581
e 222 599
e 222 601
e 222 606
e 222 607
e 222 613
e 222 622
e 222 623
e 222 632
e 222 637
e 222 646
e 222 650
e 222 658
e 222 662
e 222 666
e 222 675
e 222 676
e 222 680
e 222 682
e 222 684
e 222 694
e 222 698
e 222 714
e 222 726
e 222 734
e 222 752
e 222 757
e 222 758
e 222 763
e 222 764
e 222 767
e 222 771
e 222 773
e 222 774
e 223 236
e 223 240
e 223 242
e 223 243
e 223 244
e 223 245
e 223 254
e 223 256
e 223 260
e 223 265
e 223 267
e 223 268
e 223 272
e 223 274
e 223 275
e 223 277
e 223 278
e 223 280
e 223 283
e 223 284
e 223 285
e 223 286
e 223 288
e 223 289
e 223 292
e 223 293
e 223 298
e 223 302
e 223 304
e 223 310
e 223 316
e 223 317
e 223 318
e 223 321
e 223 323
e 223 325
e 223 326
e 223 329
e 223 333
e 223 335
e 223 336
e 223 337
e 223 347
e 223 349
e 223 354
e 223 357
e 223 362
e 223 365
e 223 367
e 223 368
e 223 372
e 223 376
e 223 377
e 223 378
e 223 384
e 223 386
e 223 398
e 223 399
e 223 401
e 223 402
e 223 409
e 223 412
e 223 413
e 223 417
e 223 418
e 223 419
e 223 420
e 223 422
e 223 423
e 223 427
e 223 433
e 223 435
e 223 436
e 223 437
e 223 438
e 223 439
e 223 440
e 223 442
e 223 443
e 223 446
e 223 449
e 223 451
e 223 454
e 223 455
e 223 774
e 224 234
e 224 241
e 224 244
e 224 245
e 224 249
e 224 254
e 224 260
e 224 265
e 224 272
e 224 273
e 224 275
e 224 277
e 224 278
e 224 280
e 224 284
e 224 285
e 224 286
e 224 297
e 224 301
e 224 306
e 224 313
e 224 317
e 224 320
e 224 321
e 224 324
e 224 325
e 224 327
e 224 331
e 224 332
e 224 335
e 224 336
e 224 337
e 224 338
e 224 342
e 224 344
e 224 354
e 224 356
e 224 362
e 224 363
e 224 364
e 224 366
e 224 368
e 224 376
e 224 377
e 224 385
e 224 387
e 224 390
e 224 393
e 224 408
e 224 417
e 224 423
e 224 435
e 224 438
e 224 442
e 224 452
e 224 454
e 224 456
e 224 458
e 224 459
e 224 460
e 224 461
e 224 462
e 224 484
e 224 487
e 224 513
e 224 515
e 224 516
e 224 523
e 224 524
e 224 526
e 224 551
e 224 583
e 224 614
e 224 623
e 224 681
e 224 713
e 224 734
e 224 749
e 225 229
e 225 239
e 225 240
e 225 241
e 225 243
e 225 245
e 225 249
e 225 254
e 225 255
e 225 256
e 225 257
e 225 263
e 225 273
e 225 275
e 225 277
e 225 279
e 225 280
e 225 283
e 225 289
e 225 292
e 225 299
e 225 300
e 225 301
e 225 303
e 225 305
e 225 313
e 225 314
e 225 315
e 225 318
e 225 325
e 225 326
e 225 332
e 225 333
e 225 336
e 225 337
e 225 344
e 225 345
e 225 351
e 225 352
e 225 354
e 225 362
e 225 376
e 225 378
e 225 382
e 225 393
e 225 394
e 225 395
e 225 396
e 225 402
e 225 404
e 225 405
e 225 407
e 225 409
e 225 413
e 225 415
e 225 425
e 225 429
e 225 430
e 225 434
e 225 438
e 225 448
e 226 236
e 226 238
e 226 251
e 226 254
e 226 260
e 226 265
e 226 273
e 226 280
e 226 286
e 226 291
e 226 297
e 226 304
e 226 307
e 226 312
e 226 327
e 226 338
e 226 345
e 226 350
e 226 362
e 226 371
e 226 382
e 226 383
e 226 391
e 226 399
e 226 428
e 226 432
e 226 435
e 226 438
e 226 457
e 226 461
e 226 463
e 226 475
e 226 477
e 226 478
e 226 479
e 226 480
e 226 484
e 226 491
e 226 493
e 226 496
e 226 498
e 226 501
e 226 502
e 226 508
e 226 513
e 226 514
e 226 515
e 226 516
e 226 521
e 226 523
e 226 525
e 226 526
e 226 530
e 226 537
e 226 551
e 226 560
e 226 562
e 226 568
e 226 571
e 226 578
e 226 580
e 226 581
e 226 582
e 226 583
e 226 584
e 226 599
e 226 607
e 226 610
e 226 616
e 226 617
e 226 618
e 226 619
e 226 621
e 226 623
e 226 626
e 226 636
e 226 645
e 226 648
e 226 651
e 226 662
e 226 663
e 226 678
e 226 681
e 226 682
e 226 687
e 226 688
e 226 696
e 226 697
e 226 700
e 226 707
e 226 710
e 226 716
e 226 720
e 226 725
e 226 730
e 226 731
e 226 732
e 226 734
e 226 739
e 226 741
e 226 745
e 226 749
e 226 756
e 226 757
e 226 760
e 226 766
e 226 772
e 227 240
e 227 242
e 227 245
e 227 249
e 227 254
e 227 256
e 227 257
e 227 272
e 227 277
e 227 283
e 227 285
e 227 287
e 227 289
e 227 293
e 227 294
e 227 318
e 227 321
e 227 322
e 227 325
e 227 338
e 227 346
e 227 354
e 227 385
e 227 413
e 227 415
e 228 240
e 228 242
e 228 245
e 228 246
e 228 249
e 228 253
e 228 254
e 228 256
e 228 265
e 228 267
e 228 272
e 228 275
e 228 277
e 228 280
e 228 284
e 228 285
e 228 291
e 228 292
e 228 298
e 228 299
e 228 300
e 228 301
e 228 313
e 228 319
e 228 320
e 228 321
e 228 325
e 228 327
e 228 335
e 228 338
e 228 342
e 228 349
e 228 354
e 228 355
e 228 362
e 228 363
e 228 364
e 228 368
e 228 370
e 228 373
e 228 375
e 228 379
e 228 381
e 228 399
e 228 404
e 228 412
e 228 417
e 228 437
e 228 451
e 228 454
e 229 239
e 229 240
e 229 241
e 229 254
e 229 256
e 229 257
e 229 263
e 229 273
e 229 274
e 229 275
e 229 277
e 229 280
e 229 286
e 229 292
e 229 301
e 229 303
e 229 306
e 229 315
e 229 317
e 229 320
e 229 324
e 229 325
e 229 327
e 229 332
e 229 337
e 229 344
e 229 345
e 229 351
e 229 352
e 229 354
e 229 362
e 229 376
e 229 393
e 229 442
e 229 456
e 230 254
e 230 257
e 230 272
e 230 273
e 230 279
e 230 280
e 230 285
e 230 287
e 230 293
e 230 294
e 230 295
e 230 305
e 230 320
e 230 321
e 230 322
e 230 333
e 230 347
e 230 356
e 230 375
e 230 382
e 230 402
e 230 424
e 230 425
e 230 450
e 231 232
e 231 237
e 231 243
e 231 244
e 231 245
e 231 249
e 231 251
e 231 254
e 231 255
e 231 258
e 231 262
e 231 265
e 231 272
e 231 276
e 231 280
e 231 282
e 231 283
e 231 293
e 231 305
e 231 307
e 231 310
e 231 321
e 231 323
e 231 329
e 231 330
e 231 333
e 231 335
e 231 338
e 231 339
e 231 347
e 231 350
e 231 357
e 231 359
e 231 360
e 231 362
e 231 365
e 231 374
e 231 376
e 231 377
e 231 378
e 231 382
e 231 383
e 231 402
e 231 403
e 231 406
e 231 407
e 231 412
e 231 416
e 231 419
e 231 422
e 231 427
e 231 435
e 231 436
e 231 437
e 231 438
e 231 441
e 231 442
e 231 444
e 231 445
e 231 447
e 232 236
e 232 244
e 232 247
e 232 248
e 232 249
e 232 250
e 232 254
e 232 259
e 232 265
e 232 276
e 232 277
e 232 280
e 232 282
e 232 283
e 232 288
e 232 298
e 232 305
e 232 310
e 232 311
e 232 320
e 232 321
e 232 328
e 232 329
e 232 330
e 232 333
e 232 334
e 232 337
e 232 338
e 232 359
e 232 360
e 232 362
e 232 368
e 232 374
e 232 377
e 232 392
e 232 398
e 232 402
e 232 406
e 232 407
e 232 412
e 232 414
e 232 416
e 232 422
e 232 423
e 232 426
e 232 437
e 232 438
e 232 443
e 232 447
e 232 449
e 232 450
e 232 455
e 233 236
e 233 237
e 233 240
e 233 254
e 233 256
e 233 272
e 233 280
e 233 283
e 233 286
e 233 295
e 233 296
e 233 297
e 233 298
e 233 310
e 233 338
e 233 347
e 233 362
e 233 366
e 233 368
e 233 391
e 233 405
e 233 409
e 233 413
e 233 423
e 233 428
e 234 235
e 234 236
e 234 237
e 234 240
e 234 248
e 234 249
e 234 251
e 234 252
e 234 254
e 234 264
e 234 265
e 234 266
e 234 267
e 234 270
e 234 271
e 234 272
e 234 275
e 234 276
e 234 277
e 234 279
e 234 280
e 234 285
e 234 286
e 234 289
e 234 292
e 234 295
e 234 296
e 234 298
e 234 305
e 234 306
e 234 307
e 234 308
e 234 309
e 234 311
e 234 317
e 234 321
e 234 325
e 234 328
e 234 331
e 234 333
e 234 335
e 234 337
e 234 338
e 234 340
e 234 347
e 234 348
e 234 354
e 234 356
e 234 357
e 234 362
e 234 364
e 234 366
e 234 368
e 234 371
e 234 378
e 234 385
e 234 389
e 234 390
e 234 391
e 234 397
e 234 399
e 234 406
e 234 408
e 234 409
e 234 410
e 234 413
e 234 416
e 234 420
e 234 423
e 234 424
e 234 428
e 234 434
e 234 435
e 234 437
e 234 438
e 234 442
e 234 447
e 234 450
e 234 452
e 234 454
e 234 455
e 234 456
e 234 774
e 235 236
e 235 237
e 235 240
e 235 249
e 235 254
e 235 272
e 235 277
e 235 280
e 235 285
e 235 286
e 235 295
e 235 296
e 235 317
e 235 321
e 235 331
e 235 335
e 235 338
e 235 347
e 235 362
e 235 364
e 235 366
e 235 368
e 235 385
e 235 391
e 235 408
e 235 409
e 235 423
e 235 428
e 235 435
e 235 438
e 235 442
e 235 452
e 235 454
e 235 456
e 236 237
e 236 240
e 236 244
e 236 245
e 236 246
e 236 247
e 236 248
e 236 249
e 236 250
e 236 251
e 236 252
e 236 254
e 236 255
e 236 256
e 236 257
e 236 258
e 236 259
e 236 260
e 236 261
e 236 262
e 236 264
e 236 265
e 236 266
e 236 267
e 236 268
e 236 269
e 236 270
e 236 272
e 236 273
e 236 275
e 236 276
e 236 277
e 236 279
e 236 280
e 236 283
e 236 285
e 236 286
e 236 289
e 236 291
e 236 292
e 236 295
e 236 296
e 236 297
e 236 298
e 236 300
e 236 305
e 236 307
e 236 308
e 236 309
e 236 310
e 236 311
e 236 312
e 236 317
e 236 320
e 236 321
e 236 325
e 236 327
e 236 328
e 236 329
e 236 331
e 236 334
e 236 335
e 236 336
e 236 337
e 236 338
e 236 342
e 236 343
e 236 345
e 236 347
e 236 349
e 236 354
e 236 356
e 236 357
e 236 358
e 236 360
e 236 362
e 236 364
e 236 365
e 236 366
e 236 368
e 236 371
e 236 373
e 236 374
e 236 378
e 236 381
e 236 382
e 236 383
e 236 385
e 236 389
e 236 391
e 236 392
e 236 398
e 236 399
e 236 400
e 236 401
e 236 402
e 236 403
e 236 405
e 236 406
e 236 407
e 236 408
e 236 409
e 236 410
e 236 411
e 236 413
e 236 414
e 236 416
e 236 420
e 236 421
e 236 422
e 236 423
e 236 424
e 236 426
e 236 427
e 236 428
e 236 431
e 236 432
e 236 433
e 236 435
e 236 436
e 236 437
e 236 438
e 236 440
e 236 442
e 236 443
e 236 446
e 236 447
e 236 448
e 236 449
e 236 450
e 236 451
e 236 452
e 236 453
e 236 454
e 236 455
e 236 456
e 236 457
e 236 460
e 236 461
e 236 462
e 236 467
e 236 468
e 236 469
e 236 471
e 236 473
e 236 474
e 236 475
e 236 476
e 236 477
e 236 478
e 236 479
e 236 480
e 236 481
e 236 483
e 236 485
e 236 486
e 236 489
e 236 491
e 236 493
e 236 498
e 236 502
e 236 505
e 236 508
e 236 513
e 236 514
e 236 515
e 236 516
e 236 529
e 236 530
e 236 531
e 236 532
e 236 533
e 236 534
e 236 536
e 236 537
e 236 544
e 236 545
e 236 546
e 236 547
e 236 549
e 236 550
e 236 551
e 236 552
e 236 558
e 236 559
e 236 562
e 236 563
e 236 567
e 236 568
e 236 569
e 236 570
e 236 571
e 236 572
e 236 573
e 236 574
e 236 575
e 236 576
e 236 577
e 236 580
e 236 581
e 236 583
e 236 589
e 236 592
e 236 593
e 236 594
e 236 595
e 236 596
e 236 597
e 236 598
e 236 599
e 236 600
e 236 601
e 236 606
e 236 607
e 236 609
e 236 611
e 236 613
e 236 615
e 236 616
e 236 618
e 236 621
e 236 622
e 236 623
e 236 626
e 236 632
e 236 633
e 236 637
e 236 640
e 236 642
e 236 644
e 236 645
e 236 646
e 236 647
e 236 648
e 236 649
e 236 650
e 236 651
e 236 652
e 236 655
e 236 656
e 236 657
e 236 658
e 236 659
e 236 661
e 236 662
e 236 664
e 236 665
e 236 668
e 236 675
e 236 676
e 236 677
e 236 679
e 236 680
e 236 681
e 236 682
e 236 684
e 236 688
e 236 689
e 236 690
e 236 693
e 236 694
e 236 695
e 236 696
e 236 698
e 236 699
e 236 700
e 236 701
e 236 703
e 236 704
e 236 705
e 236 707
e 236 709
e 236 710
e 236 711
e 236 714
e 236 715
e 236 716
e 236 718
e 236 719
e 236 720
e 236 721
e 236 722
e 236 723
e 236 725
e 236 726
e 236 727
e 236 728
e 236 729
e 236 731
e 236 732
e 236 733
e 236 734
e 236 736
e 236 737
e 236 738
e 236 741
e 236 743
e 236 748
e 236 749
e 236 751
e 236 752
e 236 753
e 236 754
e 236 755
e 236 756
e 236 757
e 236 758
e 236 759
e 236 760
e 236 761
e 236 763
e 236 764
e 236 765
e 236 767
e 236 768
e 236 770
e 236 771
e 236 773
e 236 774
e 236 775
e 236 776
e 236 777
e 236 778
e 237 240
e 237 245
e 237 254
e 237 256
e 237 258
e 237 262
e 237 272
e 237 273
e 237 279
e 237 280
e 237 283
e 237 285
e 237 286
e 237 295
e 237 296
e 237 297
e 237 310
e 237 320
e 237 321
e 237 330
e 237 331
e 237 338
e 237 347
e 237 362
e 237 364
e 237 366
e 237 368
e 237 371
e 237 391
e 237 402
e 237 409
e 237 410
e 237 413
e 237 416
e 237 425
e 237 428
e 237 441
e 237 452
e 238 251
e 238 260
e 238 265
e 238 273
e 238 280
e 238 309
e 238 329
e 238 338
e 238 350
e 238 362
e 238 371
e 238 373
e 238 382
e 238 399
e 238 400
e 238 421
e 238 432
e 238 438
e 238 456
e 238 460
e 238 461
e 238 470
e 238 475
e 238 477
e 238 484
e 238 485
e 238 486
e 238 491
e 238 502
e 238 513
e 238 516
e 238 521
e 238 530
e 238 537
e 238 551
e 238 570
e 238 571
e 238 577
e 238 578
e 238 581
e 238 582
e 238 583
e 238 610
e 238 623
e 238 636
e 238 642
e 238 651
e 238 663
e 238 680
e 238 692
e 238 702
e 238 706
e 238 711
e 238 712
e 238 717
e 238 718
e 238 723
e 238 731
e 238 739
e 238 746
e 238 757
e 238 758
e 238 772
e 239 240
e 239 241
e 239 245
e 239 249
e 239 254
e 239 255
e 239 256
e 239 257
e 239 263
e 239 273
e 239 275
e 239 278
e 239 280
e 239 283
e 239 289
e 239 292
e 239 299
e 239 300
e 239 301
e 239 303
e 239 315
e 239 325
e 239 332
e 239 337
e 239 344
e 239 345
e 239 351
e 239 352
e 239 354
e 239 363
e 239 376
e 239 382
e 239 387
e 239 393
e 239 402
e 239 404
e 239 413
e 239 415
e 239 425
e 239 442
e 240 241
e 240 242
e 240 243
e 240 244
e 240 245
e 240 249
e 240 251
e 240 253
e 240 254
e 240 256
e 240 257
e 240 258
e 240 260
e 240 263
e 240 265
e 240 266
e 240 267
e 240 271
e 240 272
e 240 273
e 240 274
e 240 275
e 240 277
e 240 278
e 240 279
e 240 280
e 240 283
e 240 284
e 240 285
e 240 286
e 240 289
e 240 291
e 240 292
e 240 295
e 240 296
e 240 297
e 240 298
e 240 299
e 240 300
e 240 304
e 240 305
e 240 307
e 240 308
e 240 309
e 240 310
e 240 312
e 240 313
e 240 316
e 240 317
e 240 318
e 240 319
e 240 320
e 240 325
e 240 326
e 240 327
e 240 329
e 240 331
e 240 332
e 240 333
e 240 335
e 240 336
e 240 337
e 240 338
e 240 340
e 240 342
e 240 343
e 240 344
e 240 345
e 240 346
e 240 347
e 240 349
e 240 350
e 240 351
e 240 354
e 240 355
e 240 356
e 240 357
e 240 361
e 240 362
e 240 363
e 240 364
e 240 365
e 240 366
e 240 367
e 240 368
e 240 370
e 240 373
e 240 374
e 240 375
e 240 376
e 240 377
e 240 378
e 240 379
e 240 380
e 240 382
e 240 384
e 240 387
e 240 388
e 240 391
e 240 392
e 240 394
e 240 395
e 240 396
e 240 399
e 240 400
e 240 402
e 240 404
e 240 405
e 240 407
e 240 409
e 240 411
e 240 412
e 240 413
e 240 414
e 240 415
e 240 416
e 240 417
e 240 419
e 240 422
e 240 423
e 240 424
e 240 425
e 240 426
e 240 427
e 240 428
e 240 429
e 240 430
e 240 433
e 240 434
e 240 435
e 240 436
e 240 437
e 240 438
e 240 439
e 240 440
e 240 441
e 240 442
e 240 443
e 240 446
e 240 448
e 240 449
e 240 451
e 240 455
e 240 456
e 240 457
e 240 468
e 240 478
e 240 479
e 240 480
e 240 481
e 240 486
e 240 489
e 240 491
e 240 493
e 240 496
e 240 502
e 240 505
e 240 513
e 240 514
e 240 530
e 240 537
e 240 544
e 240 545
e 240 546
e 240 547
e 240 549
e 240 551
e 240 552
e 240 558
e 240 559
e 240 564
e 240 568
e 240 570
e 240 571
e 240 577
e 240 581
e 240 588
e 240 589
e 240 593
e 240 594
e 240 596
e 240 599
e 240 613
e 240 615
e 240 622
e 240 623
e 240 626
e 240 635
e 240 637
e 240 640
e 240 642
e 240 644
e 240 646
e 240 648
e 240 649
e 240 651
e 240 652
e 240 653
e 240 656
e 240 657
e 240 658
e 240 662
e 240 664
e 240 665
e 240 668
e 240 672
e 240 674
e 240 679
e 240 680
e 240 681
e 240 682
e 240 684
e 240 687
e 240 689
e 240 690
e 240 694
e 240 695
e 240 696
e 240 701
e 240 704
e 240 707
e 240 708
e 240 709
e 240 714
e 240 715
e 240 722
e 240 724
e 240 731
e 240 734
e 240 736
e 240 738
e 240 741
e 240 742
e 240 743
e 240 744
e 240 749
e 240 750
e 240 754
e 240 761
e 240 762
e 240 767
e 240 769
e 240 774
e 240 776
e 240 778
e 241 243
e 241 245
e 241 249
e 241 251
e 241 254
e 241 256
e 241 257
e 241 260
e 241 263
e 241 265
e 241 272
e 241 273
e 241 274
e 241 275
e 241 277
e 241 278
e 241 279
e 241 280
e 241 284
e 241 286
e 241 289
e 241 292
e 241 301
e 241 303
e 241 308
e 241 309
e 241 310
e 241 313
e 241 315
e 241 317
e 241 318
e 241 320
e 241 321
e 241 325
e 241 326
e 241 333
e 241 336
e 241 337
e 241 338
e 241 340
e 241 342
e 241 344
e 241 345
e 241 349
e 241 351
e 241 352
e 241 356
e 241 362
e 241 363
e 241 368
e 241 370
e 241 375
e 241 376
e 241 377
e 241 379
e 241 380
e 241 383
e 241 386
e 241 387
e 241 390
e 241 393
e 241 394
e 241 395
e 241 396
e 241 399
e 241 401
e 241 402
e 241 405
e 241 407
e 241 409
e 241 413
e 241 416
e 241 423
e 241 427
e 241 429
e 241 430
e 241 434
e 241 435
e 241 437
e 241 438
e 241 439
e 241 441
e 241 442
e 241 444
e 241 445
e 241 448
e 241 451
e 241 452
e 241 455
e 242 243
e 242 245
e 242 246
e 242 254
e 242 256
e 242 260
e 242 272
e 242 274
e 242 275
e 242 277
e 242 278
e 242 280
e 242 284
e 242 291
e 242 292
e 242 299
e 242 300
e 242 317
e 242 319
e 242 320
e 242 321
e 242 325
e 242 327
e 242 329
e 242 338
e 242 342
e 242 347
e 242 354
e 242 355
e 242 362
e 242 363
e 242 370
e 242 373
e 242 375
e 242 376
e 242 377
e 242 379
e 242 380
e 242 381
e 242 382
e 242 404
e 242 412
e 242 417
e 242 442
e 242 446
e 243 244
e 243 245
e 243 249
e 243 251
e 243 254
e 243 255
e 243 256
e 243 257
e 243 260
e 243 265
e 243 267
e 243 272
e 243 273
e 243 274
e 243 275
e 243 276
e 243 277
e 243 278
e 243 279
e 243 280
e 243 281
e 243 283
e 243 284
e 243 285
e 243 286
e 243 289
e 243 290
e 243 292
e 243 293
e 243 298
e 243 303
e 243 305
e 243 309
e 243 310
e 243 313
e 243 314
e 243 315
e 243 316
e 243 317
e 243 319
e 243 320
e 243 321
e 243 322
e 243 323
e 243 325
e 243 326
e 243 329
e 243 333
e 243 335
e 243 336
e 243 337
e 243 338
e 243 343
e 243 344
e 243 345
e 243 347
e 243 349
e 243 351
e 243 352
e 243 353
e 243 357
e 243 359
e 243 360
e 243 362
e 243 367
e 243 368
e 243 372
e 243 376
e 243 377
e 243 378
e 243 382
e 243 383
e 243 386
e 243 388
e 243 393
e 243 394
e 243 395
e 243 396
e 243 399
e 243 401
e 243 402
e 243 403
e 243 404
e 243 405
e 243 407
e 243 409
e 243 418
e 243 419
e 243 422
e 243 423
e 243 424
e 243 427
e 243 429
e 243 430
e 243 435
e 243 436
e 243 437
e 243 439
e 243 440
e 243 441
e 243 442
e 243 444
e 243 445
e 243 446
e 243 448
e 243 450
e 243 451
e 243 455
e 243 774
e 244 245
e 244 246
e 244 254
e 244 255
e 244 256
e 244 260
e 244 266
e 244 268
e 244 273
e 244 275
e 244 279
e 244 280
e 244 282
e 244 283
e 244 289
e 244 290
e 244 293
e 244 297
e 244 298
e 244 307
e 244 310
e 244 317
e 244 320
e 244 323
e 244 325
e 244 326
e 244 327
e 244 329
e 244 333
e 244 335
e 244 338
e 244 343
e 244 347
e 244 356
e 244 357
e 244 359
e 244 360
e 244 362
e 244 365
e 244 372
e 244 374
e 244 376
e 244 377
e 244 381
e 244 382
e 244 392
e 244 398
e 244 401
e 244 402
e 244 405
e 244 412
e 244 413
e 244 419
e 244 420
e 244 422
e 244 423
e 244 426
e 244 427
e 244 433
e 244 435
e 244 436
e 244 437
e 244 438
e 244 442
e 244 446
e 244 448
e 244 449
e 244 451
e 244 454
e 244 455
e 244 458
e 244 459
e 244 460
e 244 461
e 244 462
e 244 475
e 244 478
e 244 484
e 244 490
e 244 491
e 244 492
e 244 500
e 244 502
e 244 513
e 244 514
e 244 515
e 244 516
e 244 523
e 244 524
e 244 526
e 244 530
e 244 537
e 244 545
e 244 571
e 244 593
e 244 595
e 244 599
e 244 609
e 244 614
e 244 623
e 244 626
e 244 633
e 244 651
e 244 659
e 244 661
e 244 668
e 244 679
e 244 681
e 244 682
e 244 695
e 244 696
e 244 713
e 244 731
e 244 734
e 244 741
e 244 743
e 244 749
e 244 774
e 245 246
e 245 249
e 245 251
e 245 253
e 245 254
e 245 255
e 245 256
e 245 257
e 245 258
e 245 260
e 245 262
e 245 265
e 245 267
e 245 272
e 245 274
e 245 275
e 245 277
e 245 278
e 245 279
e 245 280
e 245 283
e 245 284
e 245 285
e 245 286
e 245 287
e 245 289
e 245 290
e 245 291
e 245 292
e 245 293
e 245 294
e 245 297
e 245 298
e 245 299
e 245 300
e 245 301
e 245 304
e 245 305
e 245 306
e 245 309
e 245 310
e 245 313
e 245 316
e 245 317
e 245 318
e 245 319
e 245 320
e 245 321
e 245 322
e 245 323
e 245 324
e 245 325
e 245 326
e 245 327
e 245 329
e 245 330
e 245 331
e 245 332
e 245 333
e 245 335
e 245 336
e 245 338
e 245 342
e 245 343
e 245 344
e 245 345
e 245 346
e 245 347
e 245 350
e 245 351
e 245 354
e 245 355
e 245 357
e 245 359
e 245 360
e 245 362
e 245 363
e 245 364
e 245 365
e 245 368
e 245 370
e 245 372
e 245 373
e 245 374
e 245 375
e 245 376
e 245 377
e 245 378
e 245 379
e 245 380
e 245 381
e 245 382
e 245 383
e 245 385
e 245 387
e 245 388
e 245 390
e 245 392
e 245 393
e 245 394
e 245 395
e 245 396
e 245 401
e 245 402
e 245 404
e 245 405
e 245 406
e 245 407
e 245 409
e 245 412
e 245 413
e 245 415
e 245 416
e 245 417
e 245 418
e 245 419
e 245 420
e 245 423
e 245 424
e 245 425
e 245 426
e 245 427
e 245 429
e 245 430
e 245 434
e 245 435
e 245 436
e 245 437
e 245 438
e 245 439
e 245 441
e 245 442
e 245 444
e 245 445
e 245 446
e 245 447
e 245 448
e 245 449
e 245 451
e 245 452
e 245 454
e 245 456
e 245 774
e 246 249
e 246 254
e 246 256
e 246 266
e 246 269
e 246 272
e 246 275
e 246 277
e 246 280
e 246 286
e 246 291
e 246 292
e 246 297
e 246 298
e 246 299
e 246 300
e 246 307
e 246 309
e 246 319
e 246 320
e 246 321
e 246 325
e 246 329
e 246 338
e 246 347
e 246 350
e 246 352
e 246 354
e 246 355
e 246 370
e 246 371
e 246 373
e 246 375
e 246 377
e 246 379
e 246 381
e 246 382
e 246 391
e 246 399
e 246 401
e 246 404
e 246 412
e 246 423
e 246 428
e 246 436
e 246 449
e 246 456
e 246 457
e 246 460
e 246 461
e 246 462
e 246 469
e 246 471
e 246 475
e 246 477
e 246 480
e 246 481
e 246 486
e 246 491
e 246 493
e 246 500
e 246 502
e 246 505
e 246 513
e 246 514
e 246 516
e 246 517
e 246 530
e 246 540
e 246 541
e 246 542
e 246 546
e 246 551
e 246 556
e 246 563
e 246 568
e 246 581
e 246 583
e 246 590
e 246 593
e 246 599
e 246 603
e 246 607
e 246 609
e 246 614
e 246 618
e 246 620
e 246 628
e 246 629
e 246 630
e 246 631
e 246 633
e 246 634
e 246 640
e 246 643
e 246 646
e 246 647
e 246 648
e 246 651
e 246 658
e 246 659
e 246 661
e 246 662
e 246 668
e 246 671
e 246 673
e 246 677
e 246 678
e 246 681
e 246 682
e 246 684
e 246 686
e 246 691
e 246 696
e 246 697
e 246 705
e 246 715
e 246 716
e 246 730
e 246 731
e 246 733
e 246 734
e 246 735
e 246 736
e 246 739
e 246 745
e 246 747
e 246 748
e 246 749
e 246 750
e 246 753
e 246 754
e 246 766
e 246 769
e 246 770
e 246 773
e 247 248
e 247 249
e 247 250
e 247 259
e 247 276
e 247 277
e 247 280
e 247 283
e 247 311
e 247 320
e 247 328
e 247 329
e 247 374
e 247 392
e 247 402
e 247 406
e 247 416
e 247 426
e 247 437
e 247 447
e 247 449
e 247 450
e 248 250
e 248 251
e 248 252
e 248 259
e 248 276
e 248 277
e 248 279
e 248 280
e 248 283
e 248 305
e 248 311
e 248 320
e 248 321
e 248 325
e 248 328
e 248 329
e 248 337
e 248 338
e 248 354
e 248 362
e 248 368
e 248 374
e 248 389
e 248 406
e 248 416
e 248 420
e 248 423
e 248 426
e 248 437
e 248 447
e 248 449
e 248 450
e 248 455
e 249 250
e 249 251
e 249 252
e 249 253
e 249 254
e 249 255
e 249 256
e 249 257
e 249 258
e 249 262
e 249 265
e 249 272
e 249 273
e 249 276
e 249 277
e 249 279
e 249 280
e 249 283
e 249 285
e 249 286
e 249 287
e 249 289
e 249 291
e 249 293
e 249 294
e 249 296
e 249 298
e 249 299
e 249 300
e 249 301
e 249 304
e 249 305
e 249 306
e 249 307
e 249 310
e 249 311
e 249 313
e 249 317
e 249 318
e 249 319
e 249 320
e 249 321
e 249 322
e 249 325
e 249 326
e 249 327
e 249 328
e 249 329
e 249 330
e 249 331
e 249 333
e 249 335
e 249 337
e 249 338
e 249 339
e 249 341
e 249 342
e 249 345
e 249 346
e 249 347
e 249 349
e 249 350
e 249 351
e 249 354
e 249 355
e 249 362
e 249 363
e 249 364
e 249 366
e 249 368
e 249 369
e 249 373
e 249 374
e 249 375
e 249 377
e 249 378
e 249 379
e 249 380
e 249 381
e 249 382
e 249 383
e 249 384
e 249 385
e 249 386
e 249 387
e 249 388
e 249 389
e 249 390
e 249 391
e 249 392
e 249 399
e 249 401
e 249 402
e 249 404
e 249 405
e 249 406
e 249 407
e 249 408
e 249 412
e 249 413
e 249 415
e 249 416
e 249 417
e 249 419
e 249 420
e 249 422
e 249 423
e 249 424
e 249 425
e 249 426
e 249 427
e 249 428
e 249 429
e 249 430
e 249 435
e 249 436
e 249 437
e 249 438
e 249 439
e 249 441
e 249 442
e 249 444
e 249 445
e 249 446
e 249 447
e 249 448
e 249 449
e 249 450
e 249 451
e 249 452
e 249 454
e 249 455
e 249 456
e 249 457
e 249 461
e 249 475
e 249 479
e 249 480
e 249 481
e 249 486
e 249 491
e 249 496
e 249 505
e 249 513
e 249 516
e 249 530
e 249 545
e 249 546
e 249 563
e 249 567
e 249 568
e 249 569
e 249 570
e 249 571
e 249 573
e 249 576
e 249 577
e 249 581
e 249 588
e 249 593
e 249 599
e 249 607
e 249 623
e 249 632
e 249 635
e 249 640
e 249 643
e 249 644
e 249 648
e 249 651
e 249 653
e 249 662
e 249 672
e 249 674
e 249 680
e 249 681
e 249 682
e 249 684
e 249 687
e 249 690
e 249 694
e 249 696
e 249 704
e 249 707
e 249 708
e 249 724
e 249 726
e 249 733
e 249 734
e 249 736
e 249 738
e 249 741
e 249 742
e 249 744
e 249 750
e 249 751
e 249 754
e 249 762
e 249 765
e 249 769
e 249 770
e 249 774
e 249 777
e 249 778
e 250 259
e 250 276
e 250 277
e 250 280
e 250 283
e 250 311
e 250 320
e 250 328
e 250 329
e 250 374
e 250 392
e 250 402
e 250 406
e 250 416
e 250 426
e 250 437
e 250 447
e 250 449
e 250 450
e 251 252
e 251 254
e 251 255
e 251 258
e 251 265
e 251 266
e 251 267
e 251 273
e 251 277
e 251 279
e 251 280
e 251 283
e 251 286
e 251 289
e 251 297
e 251 298
e 251 304
e 251 305
e 251 307
e 251 308
e 251 309
e 251 312
e 251 318
e 251 320
e 251 321
e 251 325
e 251 326
e 251 329
e 251 333
e 251 337
e 251 338
e 251 345
e 251 349
e 251 350
e 251 352
e 251 354
e 251 356
e 251 362
e 251 364
e 251 368
e 251 371
e 251 373
e 251 374
e 251 377
e 251 378
e 251 382
e 251 383
e 251 386
e 251 389
e 251 399
e 251 400
e 251 401
e 251 402
e 251 405
e 251 406
e 251 411
e 251 420
e 251 421
e 251 422
e 251 423
e 251 427
e 251 428
e 251 432
e 251 435
e 251 437
e 251 438
e 251 439
e 251 441
e 251 442
e 251 444
e 251 445
e 251 446
e 251 447
e 251 448
e 251 449
e 251 451
e 251 453
e 251 455
e 251 456
e 251 460
e 251 461
e 251 467
e 251 471
e 251 475
e 251 476
e 251 478
e 251 479
e 251 480
e 251 484
e 251 485
e 251 486
e 251 488
e 251 489
e 251 491
e 251 496
e 251 498
e 251 502
e 251 505
e 251 513
e 251 514
e 251 515
e 251 518
e 251 519
e 251 521
e 251 527
e 251 530
e 251 531
e 251 532
e 251 533
e 251 534
e 251 537
e 251 545
e 251 547
e 251 549
e 251 551
e 251 552
e 251 558
e 251 563
e 251 564
e 251 565
e 251 568
e 251 570
e 251 571
e 251 577
e 251 579
e 251 580
e 251 581
e 251 583
e 251 586
e 251 587
e 251 589
e 251 590
e 251 591
e 251 594
e 251 596
e 251 599
e 251 607
e 251 610
e 251 612
e 251 615
e 251 618
e 251 621
e 251 622
e 251 623
e 251 625
e 251 626
e 251 627
e 251 632
e 251 640
e 251 641
e 251 642
e 251 646
e 251 648
e 251 649
e 251 651
e 251 652
e 251 654
e 251 656
e 251 657
e 251 658
e 251 659
e 251 660
e 251 663
e 251 664
e 251 665
e 251 666
e 251 669
e 251 671
e 251 675
e 251 677
e 251 678
e 251 680
e 251 681
e 251 682
e 251 683
e 251 684
e 251 685
e 251 689
e 251 690
e 251 691
e 251 694
e 251 696
e 251 697
e 251 701
e 251 706
e 251 707
e 251 709
e 251 710
e 251 711
e 251 714
e 251 715
e 251 716
e 251 717
e 251 718
e 251 722
e 251 725
e 251 726
e 251 730
e 251 731
e 251 732
e 251 734
e 251 735
e 251 739
e 251 741
e 251 743
e 251 744
e 251 746
e 251 749
e 251 752
e 251 754
e 251 757
e 251 758
e 251 759
e 251 761
e 251 765
e 251 766
e 251 771
e 251 772
e 251 776
e 251 777
e 252 277
e 252 279
e 252 286
e 252 305
e 252 321
e 252 325
e 252 337
e 252 338
e 252 354
e 252 362
e 252 368
e 252 389
e 252 402
e 252 420
e 252 422
e 252 423
e 252 455
e 253 256
e 253 267
e 253 280
e 253 283
e 253 284
e 253 289
e 253 291
e 253 298
e 253 299
e 253 300
e 253 305
e 253 318
e 253 319
e 253 335
e 253 346
e 253 347
e 253 349
e 253 368
e 253 382
e 253 399
e 253 402
e 253 404
e 253 413
e 253 415
e 253 424
e 253 425
e 253 451
e 254 255
e 254 256
e 254 257
e 254 258
e 254 260
e 254 263
e 254 264
e 254 265
e 254 266
e 254 267
e 254 268
e 254 269
e 254 270
e 254 271
e 254 272
e 254 273
e 254 274
e 254 275
e 254 276
e 254 277
e 254 278
e 254 279
e 254 280
e 254 281
e 254 283
e 254 284
e 254 285
e 254 286
e 254 287
e 254 288
e 254 289
e 254 291
e 254 292
e 254 293
e 254 294
e 254 295
e 254 296
e 254 297
e 254 298
e 254 299
e 254 300
e 254 301
e 254 302
e 254 303
e 254 304
e 254 305
e 254 306
e 254 307
e 254 308
e 254 309
e 254 310
e 254 312
e 254 313
e 254 315
e 254 316
e 254 317
e 254 318
e 254 319
e 254 320
e 254 321
e 254 322
e 254 323
e 254 324
e 254 325
e 254 326
e 254 327
e 254 329
e 254 330
e 254 331
e 254 332
e 254 333
e 254 334
e 254 335
e 254 336
e 254 337
e 254 338
e 254 339
e 254 340
e 254 341
e 254 342
e 254 344
e 254 345
e 254 346
e 254 347
e 254 349
e 254 350
e 254 351
e 254 352
e 254 354
e 254 355
e 254 356
e 254 357
e 254 359
e 254 362
e 254 363
e 254 364
e 254 365
e 254 366
e 254 367
e 254 368
e 254 369
e 254 370
e 254 371
e 254 372
e 254 373
e 254 374
e 254 375
e 254 376
e 254 377
e 254 378
e 254 379
e 254 380
e 254 381
e 254 382
e 254 383
e 254 385
e 254 386
e 254 387
e 254 388
e 254 390
e 254 391
e 254 392
e 254 393
e 254 394
e 254 395
e 254 396
e 254 398
e 254 399
e 254 400
e 254 401
e 254 402
e 254 403
e 254 404
e 254 405
e 254 406
e 254 407
e 254 408
e 254 409
e 254 410
e 254 412
e 254 413
e 254 414
e 254 415
e 254 417
e 254 418
e 254 420
e 254 422
e 254 423
e 254 424
e 254 425
e 254 427
e 254 428
e 254 429
e 254 430
e 254 432
e 254 433
e 254 434
e 254 435
e 254 436
e 254 437
e 254 438
e 254 439
e 254 440
e 254 441
e 254 442
e 254 443
e 254 444
e 254 445
e 254 446
e 254 447
e 254 448
e 254 449
e 254 450
e 254 451
e 254 452
e 254 453
e 254 454
e 254 455
e 254 456
e 254 457
e 254 460
e 254 461
e 254 462
e 254 467
e 254 468
e 254 469
e 254 470
e 254 471
e 254 473
e 254 475
e 254 476
e 254 477
e 254 478
e 254 479
e 254 480
e 254 481
e 254 484
e 254 486
e 254 488
e 254 489
e 254 491
e 254 494
e 254 495
e 254 496
e 254 498
e 254 500
e 254 501
e 254 502
e 254 505
e 254 513
e 254 514
e 254 515
e 254 516
e 254 520
e 254 527
e 254 530
e 254 537
e 254 544
e 254 545
e 254 546
e 254 547
e 254 551
e 254 552
e 254 557
e 254 558
e 254 559
e 254 562
e 254 563
e 254 564
e 254 565
e 254 568
e 254 570
e 254 571
e 254 575
e 254 577
e 254 578
e 254 579
e 254 581
e 254 582
e 254 583
e 254 584
e 254 585
e 254 587
e 254 590
e 254 591
e 254 593
e 254 594
e 254 595
e 254 599
e 254 605
e 254 606
e 254 607
e 254 609
e 254 611
e 254 612
e 254 613
e 254 614
e 254 615
e 254 616
e 254 617
e 254 618
e 254 619
e 254 621
e 254 622
e 254 623
e 254 624
e 254 625
e 254 626
e 254 627
e 254 633
e 254 637
e 254 639
e 254 640
e 254 642
e 254 643
e 254 644
e 254 646
e 254 647
e 254 648
e 254 649
e 254 650
e 254 651
e 254 652
e 254 653
e 254 654
e 254 656
e 254 657
e 254 658
e 254 659
e 254 660
e 254 661
e 254 662
e 254 663
e 254 664
e 254 665
e 254 666
e 254 667
e 254 668
e 254 669
e 254 671
e 254 672
e 254 675
e 254 677
e 254 678
e 254 679
e 254 680
e 254 681
e 254 682
e 254 683
e 254 684
e 254 685
e 254 687
e 254 688
e 254 689
e 254 690
e 254 691
e 254 692
e 254 694
e 254 695
e 254 696
e 254 698
e 254 700
e 254 702
e 254 703
e 254 704
e 254 707
e 254 709
e 254 710
e 254 711
e 254 712
e 254 713
e 254 714
e 254 715
e 254 716
e 254 717
e 254 718
e 254 719
e 254 720
e 254 721
e 254 722
e 254 723
e 254 725
e 254 726
e 254 727
e 254 728
e 254 729
e 254 731
e 254 732
e 254 733
e 254 734
e 254 735
e 254 736
e 254 737
e 254 738
e 254 740
e 254 741
e 254 742
e 254 743
e 254 744
e 254 746
e 254 747
e 254 748
e 254 749
e 254 751
e 254 752
e 254 754
e 254 756
e 254 757
e 254 758
e 254 759
e 254 760
e 254 761
e 254 762
e 254 763
e 254 764
e 254 765
e 254 767
e 254 768
e 254 769
e 254 770
e 254 771
e 254 772
e 254 773
e 254 774
e 254 775
e 254 776
e 254 777
e 254 778
e 255 256
e 255 258
e 255 271
e 255 273
e 255 279
e 255 280
e 255 283
e 255 286
e 255 289
e 255 290
e 255 291
e 255 293
e 255 298
e 255 299
e 255 300
e 255 303
e 255 310
e 255 312
e 255 319
e 255 323
e 255 325
e 255 329
e 255 333
e 255 335
e 255 337
e 255 338
e 255 343
e 255 344
e 255 345
e 255 347
e 255 352
e 255 354
e 255 357
e 255 358
e 255 359
e 255 360
e 255 362
e 255 368
e 255 371
e 255 373
e 255 376
e 255 381
e 255 382
e 255 383
e 255 391
e 255 393
e 255 399
e 255 402
e 255 404
e 255 413
e 255 415
e 255 419
e 255 425
e 255 428
e 255 432
e 255 435
e 255 436
e 255 438
e 255 446
e 255 448
e 255 449
e 255 455
e 255 461
e 255 464
e 255 465
e 255 466
e 255 468
e 255 474
e 255 475
e 255 479
e 255 480
e 255 481
e 255 483
e 255 485
e 255 486
e 255 489
e 255 493
e 255 502
e 255 503
e 255 504
e 255 506
e 255 513
e 255 514
e 255 515
e 255 516
e 255 518
e 255 519
e 255 545
e 255 551
e 255 552
e 255 565
e 255 568
e 255 570
e 255 579
e 255 591
e 255 593
e 255 594
e 255 607
e 255 613
e 255 615
e 255 623
e 255 626
e 255 640
e 255 645
e 255 646
e 255 648
e 255 660
e 255 665
e 255 666
e 255 669
e 255 675
e 255 678
e 255 682
e 255 683
e 255 684
e 255 685
e 255 689
e 255 690
e 255 695
e 255 696
e 255 709
e 255 710
e 255 722
e 255 725
e 255 726
e 255 743
e 255 746
e 255 759
e 255 761
e 255 771
e 255 772
e 255 776
e 256 257
e 256 260
e 256 262
e 256 263
e 256 267
e 256 272
e 256 273
e 256 274
e 256 275
e 256 277
e 256 278
e 256 279
e 256 280
e 256 283
e 256 284
e 256 285
e 256 287
e 256 289
e 256 291
e 256 292
e 256 293
e 256 294
e 256 295
e 256 296
e 256 297
e 256 298
e 256 299
e 256 300
e 256 303
e 256 304
e 256 305
e 256 310
e 256 315
e 256 316
e 256 317
e 256 318
e 256 319
e 256 320
e 256 321
e 256 322
e 256 323
e 256 325
e 256 329
e 256 332
e 256 336
e 256 337
e 256 338
e 256 344
e 256 345
e 256 346
e 256 347
e 256 350
e 256 352
e 256 353
e 256 354
e 256 355
e 256 357
e 256 366
e 256 368
e 256 370
e 256 371
e 256 373
e 256 374
e 256 375
e 256 376
e 256 377
e 256 379
e 256 381
e 256 382
e 256 392
e 256 393
e 256 401
e 256 402
e 256 404
e 256 405
e 256 409
e 256 410
e 256 412
e 256 413
e 256 415
e 256 417
e 256 418
e 256 419
e 256 423
e 256 424
e 256 425
e 256 427
e 256 435
e 256 442
e 256 449
e 256 451
e 256 452
e 256 774
e 257 260
e 257 263
e 257 267
e 257 272
e 257 273
e 257 275
e 257 277
e 257 278
e 257 279
e 257 280
e 257 281
e 257 283
e 257 285
e 257 286
e 257 287
e 257 289
e 257 292
e 257 293
e 257 294
e 257 295
e 257 298
e 257 301
e 257 303
e 257 304
e 257 305
e 257 309
e 257 312
e 257 313
e 257 314
e 257 315
e 257 318
e 257 320
e 257 321
e 257 322
e 257 323
e 257 325
e 257 326
e 257 327
e 257 329
e 257 332
e 257 333
e 257 336
e 257 337
e 257 338
e 257 344
e 257 345
e 257 346
e 257 347
e 257 349
e 257 351
e 257 352
e 257 354
e 257 356
e 257 361
e 257 362
e 257 363
e 257 365
e 257 367
e 257 368
e 257 369
e 257 370
e 257 372
e 257 375
e 257 376
e 257 378
e 257 380
e 257 382
e 257 383
e 257 387
e 257 388
e 257 393
e 257 394
e 257 395
e 257 396
e 257 400
e 257 402
e 257 404
e 257 405
e 257 407
e 257 409
e 257 410
e 257 411
e 257 413
e 257 415
e 257 417
e 257 418
e 257 419
e 257 421
e 257 424
e 257 425
e 257 427
e 257 428
e 257 429
e 257 430
e 257 432
e 257 434
e 257 436
e 257 437
e 257 438
e 257 440
e 257 441
e 257 442
e 257 444
e 257 445
e 257 446
e 257 448
e 257 450
e 257 457
e 257 460
e 257 461
e 257 462
e 257 476
e 257 477
e 257 481
e 257 486
e 257 498
e 257 505
e 257 513
e 257 514
e 257 530
e 257 537
e 257 545
e 257 546
e 257 551
e 257 563
e 257 570
e 257 571
e 257 575
e 257 577
e 257 579
e 257 581
e 257 583
e 257 593
e 257 599
e 257 606
e 257 607
e 257 622
e 257 623
e 257 626
e 257 640
e 257 648
e 257 679
e 257 681
e 257 682
e 257 690
e 257 696
e 257 698
e 257 703
e 257 710
e 257 714
e 257 717
e 257 718
e 257 721
e 257 723
e 257 734
e 257 738
e 257 748
e 257 752
e 257 755
e 257 759
e 257 760
e 257 761
e 257 763
e 257 770
e 257 771
e 257 774
e 257 777
e 257 778
e 258 262
e 258 266
e 258 271
e 258 272
e 258 273
e 258 280
e 258 283
e 258 286
e 258 298
e 258 300
e 258 307
e 258 310
e 258 319
e 258 320
e 258 321
e 258 322
e 258 325
e 258 327
e 258 329
e 258 330
e 258 337
e 258 338
e 258 339
e 258 341
e 258 345
e 258 347
e 258 349
e 258 350
e 258 354
e 258 364
e 258 369
e 258 375
e 258 379
e 258 381
e 258 382
e 258 391
e 258 399
e 258 400
e 258 402
e 258 407
e 258 411
e 258 416
e 258 422
e 258 428
e 258 435
e 258 438
e 258 441
e 258 444
e 258 446
e 258 448
e 258 453
e 258 455
e 258 456
e 258 457
e 258 461
e 258 464
e 258 465
e 258 466
e 258 468
e 258 471
e 258 475
e 258 478
e 258 479
e 258 480
e 258 486
e 258 489
e 258 491
e 258 493
e 258 494
e 258 495
e 258 502
e 258 503
e 258 504
e 258 506
e 258 513
e 258 514
e 258 515
e 258 516
e 258 519
e 258 530
e 258 531
e 258 532
e 258 533
e 258 534
e 258 537
e 258 543
e 258 544
e 258 545
e 258 546
e 258 547
e 258 551
e 258 552
e 258 558
e 258 559
e 258 563
e 258 564
e 258 565
e 258 567
e 258 569
e 258 570
e 258 571
e 258 573
e 258 576
e 258 577
e 258 581
e 258 593
e 258 594
e 258 596
e 258 599
e 258 606
e 258 607
e 258 613
e 258 618
e 258 620
e 258 622
e 258 623
e 258 626
e 258 629
e 258 632
e 258 637
e 258 638
e 258 642
e 258 646
e 258 648
e 258 649
e 258 651
e 258 652
e 258 656
e 258 657
e 258 658
e 258 662
e 258 664
e 258 665
e 258 666
e 258 668
e 258 675
e 258 679
e 258 680
e 258 682
e 258 684
e 258 689
e 258 690
e 258 694
e 258 695
e 258 696
e 258 698
e 258 701
e 258 708
e 258 709
e 258 714
e 258 715
e 258 722
e 258 724
e 258 726
e 258 731
e 258 734
e 258 741
e 258 743
e 258 747
e 258 749
e 258 753
e 258 761
e 258 766
e 258 767
e 258 771
e 258 778
e 259 276
e 259 280
e 259 283
e 259 311
e 259 320
e 259 328
e 259 329
e 259 374
e 259 392
e 259 406
e 259 416
e 259 422
e 259 426
e 259 437
e 259 447
e 259 449
e 259 450
e 260 265
e 260 267
e 260 272
e 260 273
e 260 274
e 260 275
e 260 276
e 260 277
e 260 278
e 260 280
e 260 284
e 260 286
e 260 289
e 260 291
e 260 292
e 260 297
e 260 298
e 260 301
e 260 304
e 260 305
e 260 307
e 260 309
e 260 312
e 260 316
e 260 317
e 260 321
e 260 322
e 260 325
e 260 327
e 260 329
e 260 333
e 260 335
e 260 336
e 260 337
e 260 338
e 260 342
e 260 344
e 260 345
e 260 347
e 260 349
e 260 350
e 260 356
e 260 361
e 260 362
e 260 363
e 260 365
e 260 367
e 260 368
e 260 370
e 260 371
e 260 376
e 260 377
e 260 380
e 260 382
e 260 387
e 260 390
e 260 391
e 260 393
e 260 399
e 260 402
e 260 403
e 260 417
e 260 419
e 260 424
e 260 428
e 260 432
e 260 434
e 260 435
e 260 436
e 260 437
e 260 438
e 260 442
e 260 446
e 260 450
e 260 451
e 260 452
e 260 458
e 260 459
e 260 460
e 260 461
e 260 462
e 260 475
e 260 477
e 260 478
e 260 479
e 260 480
e 260 484
e 260 491
e 260 498
e 260 501
e 260 502
e 260 508
e 260 513
e 260 515
e 260 516
e 260 521
e 260 523
e 260 524
e 260 525
e 260 526
e 260 537
e 260 551
e 260 568
e 260 571
e 260 578
e 260 582
e 260 583
e 260 584
e 260 599
e 260 610
e 260 614
e 260 617
e 260 618
e 260 619
e 260 621
e 260 623
e 260 636
e 260 645
e 260 648
e 260 651
e 260 662
e 260 663
e 260 681
e 260 688
e 260 696
e 260 700
e 260 707
e 260 710
e 260 713
e 260 720
e 260 725
e 260 731
e 260 732
e 260 734
e 260 739
e 260 741
e 260 749
e 260 756
e 260 772
e 260 774
e 261 277
e 261 279
e 261 280
e 261 298
e 261 312
e 261 320
e 261 334
e 261 347
e 261 354
e 261 357
e 261 389
e 261 398
e 261 402
e 261 403
e 261 407
e 261 414
e 261 426
e 261 433
e 261 443
e 262 272
e 262 273
e 262 279
e 262 280
e 262 283
e 262 285
e 262 295
e 262 297
e 262 307
e 262 310
e 262 319
e 262 320
e 262 321
e 262 330
e 262 338
e 262 339
e 262 341
e 262 347
e 262 349
e 262 366
e 262 371
e 262 381
e 262 402
e 262 407
e 262 410
e 262 416
e 262 425
e 262 441
e 262 452
e 263 273
e 263 275
e 263 277
e 263 283
e 263 292
e 263 301
e 263 303
e 263 305
e 263 314
e 263 315
e 263 325
e 263 332
e 263 333
e 263 337
e 263 344
e 263 345
e 263 351
e 263 352
e 263 354
e 263 362
e 263 376
e 263 393
e 263 413
e 263 415
e 263 425
e 263 438
e 264 266
e 264 267
e 264 269
e 264 270
e 264 272
e 264 276
e 264 298
e 264 307
e 264 320
e 264 321
e 264 325
e 264 328
e 264 339
e 264 340
e 264 347
e 264 356
e 264 357
e 264 368
e 264 405
e 264 406
e 264 414
e 264 416
e 264 427
e 265 266
e 265 268
e 265 269
e 265 272
e 265 273
e 265 277
e 265 280
e 265 283
e 265 285
e 265 286
e 265 288
e 265 289
e 265 291
e 265 292
e 265 297
e 265 298
e 265 301
e 265 305
e 265 306
e 265 307
e 265 308
e 265 309
e 265 310
e 265 312
e 265 313
e 265 317
e 265 318
e 265 320
e 265 321
e 265 323
e 265 325
e 265 327
e 265 329
e 265 330
e 265 331
e 265 334
e 265 335
e 265 337
e 265 338
e 265 340
e 265 342
e 265 345
e 265 349
e 265 350
e 265 354
e 265 356
e 265 359
e 265 360
e 265 362
e 265 363
e 265 364
e 265 366
e 265 368
e 265 370
e 265 371
e 265 374
e 265 375
e 265 376
e 265 377
e 265 378
e 265 379
e 265 380
e 265 382
e 265 383
e 265 384
e 265 385
e 265 387
e 265 390
e 265 391
e 265 398
e 265 399
e 265 401
e 265 402
e 265 403
e 265 405
e 265 406
e 265 407
e 265 408
e 265 413
e 265 414
e 265 416
e 265 417
e 265 420
e 265 422
e 265 423
e 265 424
e 265 427
e 265 428
e 265 432
e 265 433
e 265 435
e 265 436
e 265 437
e 265 438
e 265 439
e 265 441
e 265 442
e 265 443
e 265 444
e 265 445
e 265 447
e 265 449
e 265 450
e 265 451
e 265 452
e 265 454
e 265 455
e 265 456
e 265 461
e 265 463
e 265 475
e 265 477
e 265 480
e 265 484
e 265 491
e 265 496
e 265 498
e 265 501
e 265 502
e 265 513
e 265 514
e 265 515
e 265 516
e 265 521
e 265 523
e 265 525
e 265 526
e 265 530
e 265 537
e 265 551
e 265 562
e 265 568
e 265 571
e 265 578
e 265 581
e 265 582
e 265 583
e 265 584
e 265 599
e 265 610
e 265 616
e 265 617
e 265 618
e 265 619
e 265 621
e 265 623
e 265 626
e 265 636
e 265 651
e 265 662
e 265 663
e 265 681
e 265 682
e 265 687
e 265 688
e 265 696
e 265 710
e 265 731
e 265 732
e 265 734
e 265 739
e 265 741
e 265 745
e 265 749
e 265 756
e 265 757
e 265 760
e 265 772
e 266 267
e 266 269
e 266 270
e 266 272
e 266 276
e 266 280
e 266 286
e 266 289
e 266 297
e 266 298
e 266 307
e 266 309
e 266 310
e 266 323
e 266 325
e 266 328
e 266 329
e 266 338
e 266 347
e 266 349
e 266 350
e 266 356
e 266 357
e 266 381
e 266 382
e 266 406
e 266 416
e 266 423
e 266 438
e 266 449
e 266 455
e 266 456
e 266 460
e 266 461
e 266 469
e 266 475
e 266 477
e 266 478
e 266 486
e 266 491
e 266 496
e 266 500
e 266 502
e 266 505
e 266 513
e 266 514
e 266 515
e 266 521
e 266 522
e 266 530
e 266 537
e 266 540
e 266 545
e 266 551
e 266 571
e 266 581
e 266 590
e 266 593
e 266 599
e 266 603
e 266 609
e 266 612
e 266 614
e 266 626
e 266 633
e 266 640
e 266 643
e 266 647
e 266 651
e 266 654
e 266 656
e 266 657
e 266 658
e 266 659
e 266 661
e 266 668
e 266 671
e 266 673
e 266 677
e 266 679
e 266 680
e 266 681
e 266 682
e 266 684
e 266 695
e 266 696
e 266 701
e 266 705
e 266 731
e 266 734
e 266 736
e 266 741
e 266 743
e 266 747
e 266 748
e 266 749
e 266 752
e 266 753
e 266 754
e 266 777
e 267 269
e 267 270
e 267 272
e 267 273
e 267 276
e 267 280
e 267 284
e 267 286
e 267 291
e 267 293
e 267 297
e 267 298
e 267 299
e 267 300
e 267 304
e 267 307
e 267 309
e 267 310
e 267 316
e 267 317
e 267 319
e 267 320
e 267 321
e 267 323
e 267 325
e 267 327
e 267 328
e 267 329
e 267 335
e 267 337
e 267 339
e 267 340
e 267 342
e 267 345
e 267 347
e 267 349
e 267 356
e 267 357
e 267 361
e 267 362
e 267 367
e 267 368
e 267 370
e 267 376
e 267 377
e 267 380
e 267 381
e 267 382
e 267 383
e 267 399
e 267 400
e 267 404
e 267 405
e 267 406
e 267 412
e 267 414
e 267 416
e 267 417
e 267 418
e 267 419
e 267 427
e 267 432
e 267 435
e 267 436
e 267 437
e 267 442
e 267 446
e 267 448
e 267 451
e 267 453
e 267 455
e 267 456
e 267 460
e 267 461
e 267 462
e 267 470
e 267 476
e 267 477
e 267 479
e 267 481
e 267 484
e 267 496
e 267 498
e 267 505
e 267 513
e 267 514
e 267 515
e 267 516
e 267 536
e 267 537
e 267 545
e 267 552
e 267 562
e 267 570
e 267 577
e 267 578
e 267 581
e 267 582
e 267 601
e 267 608
e 267 626
e 267 636
e 267 650
e 267 651
e 267 659
e 267 662
e 267 670
e 267 672
e 267 675
e 267 676
e 267 677
e 267 680
e 267 681
e 267 682
e 267 684
e 267 687
e 267 692
e 267 696
e 267 698
e 267 712
e 267 714
e 267 717
e 267 718
e 267 723
e 267 734
e 267 735
e 267 738
e 267 752
e 267 754
e 267 757
e 267 758
e 267 760
e 267 761
e 267 763
e 267 764
e 267 773
e 267 777
e 268 269
e 268 280
e 268 283
e 268 286
e 268 289
e 268 292
e 268 308
e 268 309
e 268 320
e 268 325
e 268 329
e 268 335
e 268 360
e 268 362
e 268 365
e 268 374
e 268 398
e 268 401
e 268 403
e 268 413
e 268 420
e 268 422
e 268 424
e 268 433
e 268 437
e 268 438
e 268 450
e 268 451
e 268 454
e 268 774
e 269 270
e 269 280
e 269 283
e 269 286
e 269 292
e 269 297
e 269 298
e 269 304
e 269 308
e 269 309
e 269 320
e 269 321
e 269 325
e 269 329
e 269 339
e 269 340
e 269 345
e 269 350
e 269 357
e 269 360
e 269 362
e 269 368
e 269 374
e 269 402
e 269 403
e 269 405
e 269 414
e 269 420
e 269 422
e 269 424
e 269 427
e 269 433
e 269 437
e 269 449
e 269 450
e 269 454
e 269 460
e 269 462
e 269 467
e 269 477
e 269 480
e 269 484
e 269 491
e 269 502
e 269 513
e 269 514
e 269 540
e 269 581
e 269 582
e 269 593
e 269 599
e 269 615
e 269 633
e 269 639
e 269 640
e 269 642
e 269 643
e 269 644
e 269 651
e 269 658
e 269 671
e 269 681
e 269 682
e 269 684
e 269 705
e 269 736
e 269 742
e 269 747
e 269 748
e 269 753
e 269 754
e 269 773
e 270 272
e 270 276
e 270 298
e 270 307
e 270 320
e 270 321
e 270 325
e 270 328
e 270 339
e 270 340
e 270 347
e 270 356
e 270 357
e 270 368
e 270 405
e 270 406
e 270 414
e 270 416
e 270 427
e 271 272
e 271 273
e 271 277
e 271 280
e 271 286
e 271 295
e 271 298
e 271 309
e 271 320
e 271 329
e 271 331
e 271 338
e 271 346
e 271 347
e 271 349
e 271 350
e 271 354
e 271 356
e 271 362
e 271 364
e 271 366
e 271 373
e 271 381
e 271 382
e 271 385
e 271 390
e 271 391
e 271 399
e 271 408
e 271 409
e 271 415
e 271 423
e 271 427
e 271 428
e 271 432
e 271 438
e 271 446
e 271 448
e 271 455
e 271 461
e 271 464
e 271 465
e 271 466
e 271 467
e 271 468
e 271 469
e 271 470
e 271 476
e 271 477
e 271 485
e 271 486
e 271 489
e 271 496
e 271 498
e 271 502
e 271 503
e 271 504
e 271 505
e 271 506
e 271 513
e 271 514
e 271 515
e 271 516
e 271 519
e 271 530
e 271 535
e 271 545
e 271 551
e 271 552
e 271 565
e 271 568
e 271 581
e 271 593
e 271 596
e 271 622
e 271 624
e 271 626
e 271 627
e 271 633
e 271 640
e 271 646
e 271 648
e 271 651
e 271 659
e 271 664
e 271 665
e 271 666
e 271 671
e 271 675
e 271 680
e 271 681
e 271 682
e 271 684
e 271 692
e 271 696
e 271 702
e 271 712
e 271 713
e 271 715
e 271 717
e 271 718
e 271 733
e 271 740
e 271 741
e 271 745
e 271 746
e 271 756
e 271 760
e 271 763
e 272 273
e 272 276
e 272 277
e 272 279
e 272 280
e 272 281
e 272 283
e 272 285
e 272 286
e 272 287
e 272 288
e 272 289
e 272 293
e 272 294
e 272 295
e 272 296
e 272 298
e 272 299
e 272 300
e 272 301
e 272 302
e 272 305
e 272 306
e 272 307
e 272 308
e 272 309
e 272 310
e 272 311
e 272 313
e 272 316
e 272 317
e 272 318
e 272 319
e 272 320
e 272 321
e 272 322
e 272 323
e 272 325
e 272 327
e 272 328
e 272 329
e 272 330
e 272 331
e 272 333
e 272 335
e 272 337
e 272 338
e 272 339
e 272 340
e 272 341
e 272 342
e 272 346
e 272 347
e 272 349
e 272 350
e 272 351
e 272 354
e 272 355
e 272 356
e 272 357
e 272 362
e 272 363
e 272 364
e 272 365
e 272 366
e 272 368
e 272 369
e 272 370
e 272 372
e 272 373
e 272 375
e 272 376
e 272 377
e 272 378
e 272 379
e 272 380
e 272 381
e 272 382
e 272 383
e 272 385
e 272 387
e 272 388
e 272 390
e 272 391
e 272 399
e 272 401
e 272 402
e 272 404
e 272 405
e 272 406
e 272 407
e 272 408
e 272 409
e 272 412
e 272 413
e 272 415
e 272 416
e 272 417
e 272 418
e 272 420
e 272 422
e 272 423
e 272 424
e 272 425
e 272 428
e 272 433
e 272 434
e 272 435
e 272 436
e 272 437
e 272 438
e 272 440
e 272 441
e 272 442
e 272 444
e 272 445
e 272 449
e 272 450
e 272 451
e 272 452
e 272 454
e 272 455
e 272 456
e 272 774
e 273 275
e 273 278
e 273 279
e 273 280
e 273 281
e 273 283
e 273 286
e 273 287
e 273 289
e 273 292
e 273 295
e 273 297
e 273 298
e 273 300
e 273 301
e 273 303
e 273 304
e 273 307
e 273 309
e 273 310
e 273 313
e 273 314
e 273 315
e 273 318
e 273 319
e 273 320
e 273 321
e 273 322
e 273 325
e 273 326
e 273 327
e 273 329
e 273 330
e 273 332
e 273 333
e 273 337
e 273 338
e 273 339
e 273 341
e 273 344
e 273 345
e 273 347
e 273 349
e 273 350
e 273 351
e 273 352
e 273 354
e 273 356
e 273 361
e 273 362
e 273 363
e 273 367
e 273 368
e 273 369
e 273 370
e 273 373
e 273 375
e 273 376
e 273 379
e 273 380
e 273 381
e 273 382
e 273 386
e 273 387
e 273 391
e 273 393
e 273 399
e 273 400
e 273 402
e 273 404
e 273 405
e 273 407
e 273 410
e 273 417
e 273 419
e 273 421
e 273 423
e 273 425
e 273 432
e 273 435
e 273 437
e 273 438
e 273 439
e 273 442
e 273 444
e 273 445
e 273 446
e 273 448
e 273 453
e 273 455
e 273 456
e 273 457
e 273 458
e 273 459
e 273 460
e 273 461
e 273 462
e 273 468
e 273 470
e 273 475
e 273 476
e 273 477
e 273 481
e 273 484
e 273 485
e 273 486
e 273 489
e 273 491
e 273 493
e 273 494
e 273 495
e 273 496
e 273 498
e 273 502
e 273 505
e 273 513
e 273 514
e 273 515
e 273 516
e 273 523
e 273 524
e 273 525
e 273 526
e 273 530
e 273 536
e 273 537
e 273 544
e 273 545
e 273 546
e 273 552
e 273 559
e 273 562
e 273 563
e 273 567
e 273 568
e 273 569
e 273 570
e 273 571
e 273 572
e 273 573
e 273 574
e 273 576
e 273 577
e 273 580
e 273 581
e 273 582
e 273 583
e 273 599
e 273 601
e 273 606
e 273 607
e 273 608
e 273 613
e 273 614
e 273 622
e 273 623
e 273 624
e 273 632
e 273 636
e 273 637
e 273 642
e 273 646
e 273 649
e 273 650
e 273 651
e 273 658
e 273 659
e 273 662
e 273 666
e 273 670
e 273 672
e 273 675
e 273 676
e 273 679
e 273 680
e 273 681
e 273 682
e 273 684
e 273 687
e 273 689
e 273 692
e 273 694
e 273 696
e 273 698
e 273 701
e 273 702
e 273 706
e 273 709
e 273 711
e 273 712
e 273 713
e 273 714
e 273 717
e 273 718
e 273 721
e 273 722
e 273 723
e 273 726
e 273 731
e 273 734
e 273 735
e 273 738
e 273 741
e 273 743
e 273 746
e 273 749
e 273 752
e 273 754
e 273 756
e 273 757
e 273 758
e 273 760
e 273 761
e 273 763
e 273 764
e 273 767
e 273 770
e 273 771
e 273 773
e 273 777
e 273 778
e 274 275
e 274 277
e 274 278
e 274 280
e 274 284
e 274 286
e 274 292
e 274 306
e 274 317
e 274 320
e 274 324
e 274 325
e 274 327
e 274 336
e 274 344
e 274 362
e 274 376
e 274 377
e 274 435
e 274 442
e 274 456
e 275 277
e 275 278
e 275 279
e 275 280
e 275 283
e 275 284
e 275 291
e 275 292
e 275 297
e 275 299
e 275 300
e 275 301
e 275 303
e 275 305
e 275 315
e 275 317
e 275 319
e 275 320
e 275 321
e 275 325
e 275 336
e 275 337
e 275 338
e 275 342
e 275 344
e 275 345
e 275 347
e 275 351
e 275 352
e 275 354
e 275 363
e 275 370
e 275 374
e 275 376
e 275 377
e 275 387
e 275 390
e 275 392
e 275 393
e 275 397
e 275 402
e 275 404
e 275 410
e 275 420
e 275 423
e 275 426
e 275 435
e 275 437
e 275 442
e 275 447
e 275 449
e 275 450
e 275 451
e 275 452
e 275 774
e 276 277
e 276 280
e 276 282
e 276 283
e 276 292
e 276 293
e 276 305
e 276 307
e 276 309
e 276 310
e 276 311
e 276 316
e 276 319
e 276 320
e 276 322
e 276 323
e 276 325
e 276 326
e 276 327
e 276 328
e 276 329
e 276 330
e 276 333
e 276 339
e 276 347
e 276 350
e 276 353
e 276 356
e 276 357
e 276 361
e 276 362
e 276 365
e 276 374
e 276 383
e 276 384
e 276 392
e 276 402
e 276 403
e 276 406
e 276 407
e 276 416
e 276 424
e 276 426
e 276 427
e 276 437
e 276 440
e 276 447
e 276 449
e 276 450
e 277 278
e 277 279
e 277 280
e 277 283
e 277 284
e 277 285
e 277 286
e 277 289
e 277 291
e 277 292
e 277 295
e 277 296
e 277 298
e 277 299
e 277 300
e 277 305
e 277 306
e 277 310
e 277 311
e 277 312
e 277 313
e 277 317
e 277 319
e 277 320
e 277 321
e 277 325
e 277 326
e 277 327
e 277 328
e 277 329
e 277 332
e 277 333
e 277 334
e 277 335
e 277 336
e 277 337
e 277 338
e 277 342
e 277 343
e 277 344
e 277 345
e 277 346
e 277 347
e 277 348
e 277 350
e 277 354
e 277 355
e 277 357
e 277 362
e 277 363
e 277 364
e 277 366
e 277 368
e 277 370
e 277 371
e 277 373
e 277 374
e 277 375
e 277 376
e 277 377
e 277 378
e 277 379
e 277 380
e 277 381
e 277 382
e 277 384
e 277 385
e 277 389
e 277 390
e 277 391
e 277 392
e 277 394
e 277 395
e 277 396
e 277 397
e 277 398
e 277 401
e 277 402
e 277 403
e 277 404
e 277 405
e 277 407
e 277 408
e 277 409
e 277 410
e 277 412
e 277 414
e 277 415
e 277 416
e 277 419
e 277 420
e 277 422
e 277 423
e 277 426
e 277 428
e 277 429
e 277 430
e 277 433
e 277 435
e 277 437
e 277 438
e 277 439
e 277 440
e 277 442
e 277 443
e 277 446
e 277 447
e 277 448
e 277 449
e 277 450
e 277 452
e 277 454
e 277 455
e 277 456
e 278 280
e 278 284
e 278 292
e 278 301
e 278 317
e 278 325
e 278 332
e 278 336
e 278 337
e 278 342
e 278 344
e 278 345
e 278 354
e 278 363
e 278 376
e 278 377
e 278 387
e 278 390
e 278 393
e 278 435
e 278 442
e 278 452
e 279 280
e 279 281
e 279 283
e 279 285
e 279 286
e 279 287
e 279 289
e 279 295
e 279 297
e 279 298
e 279 303
e 279 305
e 279 312
e 279 313
e 279 314
e 279 317
e 279 318
e 279 320
e 279 321
e 279 325
e 279 326
e 279 329
e 279 334
e 279 335
e 279 336
e 279 337
e 279 338
e 279 343
e 279 345
e 279 347
e 279 348
e 279 352
e 279 354
e 279 356
e 279 357
e 279 362
e 279 364
e 279 366
e 279 368
e 279 371
e 279 373
e 279 376
e 279 378
e 279 382
e 279 383
e 279 389
e 279 392
e 279 394
e 279 395
e 279 396
e 279 397
e 279 398
e 279 399
e 279 402
e 279 403
e 279 404
e 279 405
e 279 407
e 279 408
e 279 409
e 279 410
e 279 413
e 279 414
e 279 420
e 279 422
e 279 423
e 279 426
e 279 427
e 279 428
e 279 429
e 279 430
e 279 432
e 279 433
e 279 434
e 279 435
e 279 438
e 279 440
e 279 442
e 279 443
e 279 444
e 279 445
e 279 447
e 279 448
e 279 449
e 279 450
e 279 451
e 279 452
e 279 454
e 279 455
e 279 456
e 279 461
e 279 467
e 279 475
e 279 486
e 279 489
e 279 502
e 279 505
e 279 513
e 279 515
e 279 516
e 279 518
e 279 519
e 279 546
e 279 568
e 279 570
e 279 579
e 279 591
e 279 607
e 279 622
e 279 623
e 279 626
e 279 640
e 279 646
e 279 648
e 279 649
e 279 652
e 279 660
e 279 666
e 279 669
e 279 675
e 279 678
e 279 681
e 279 683
e 279 684
e 279 685
e 279 689
e 279 690
e 279 694
e 279 696
e 279 702
e 279 709
e 279 710
e 279 714
e 279 715
e 279 717
e 279 718
e 279 722
e 279 725
e 279 726
e 279 740
e 279 746
e 279 759
e 279 761
e 279 771
e 279 772
e 279 774
e 279 776
e 280 282
e 280 283
e 280 284
e 280 285
e 280 286
e 280 287
e 280 289
e 280 290
e 280 291
e 280 292
e 280 293
e 280 294
e 280 295
e 280 296
e 280 297
e 280 298
e 280 299
e 280 300
e 280 301
e 280 302
e 280 304
e 280 305
e 280 306
e 280 307
e 280 308
e 280 309
e 280 310
e 280 311
e 280 312
e 280 313
e 280 315
e 280 316
e 280 317
e 280 318
e 280 319
e 280 320
e 280 321
e 280 322
e 280 323
e 280 324
e 280 325
e 280 326
e 280 327
e 280 328
e 280 329
e 280 330
e 280 331
e 280 333
e 280 334
e 280 335
e 280 336
e 280 338
e 280 340
e 280 341
e 280 342
e 280 343
e 280 344
e 280 345
e 280 346
e 280 347
e 280 349
e 280 350
e 280 352
e 280 353
e 280 354
e 280 355
e 280 356
e 280 357
e 280 358
e 280 359
e 280 360
e 280 361
e 280 362
e 280 363
e 280 364
e 280 365
e 280 366
e 280 367
e 280 368
e 280 369
e 280 370
e 280 372
e 280 373
e 280 374
e 280 375
e 280 376
e 280 377
e 280 378
e 280 379
e 280 380
e 280 381
e 280 382
e 280 383
e 280 384
e 280 387
e 280 389
e 280 390
e 280 391
e 280 392
e 280 394
e 280 395
e 280 396
e 280 398
e 280 399
e 280 400
e 280 401
e 280 402
e 280 403
e 280 404
e 280 405
e 280 406
e 280 407
e 280 408
e 280 409
e 280 410
e 280 411
e 280 412
e 280 413
e 280 414
e 280 415
e 280 416
e 280 417
e 280 418
e 280 419
e 280 420
e 280 421
e 280 422
e 280 423
e 280 424
e 280 425
e 280 426
e 280 427
e 280 428
e 280 429
e 280 430
e 280 432
e 280 433
e 280 434
e 280 435
e 280 436
e 280 437
e 280 438
e 280 439
e 280 440
e 280 441
e 280 442
e 280 443
e 280 444
e 280 445
e 280 446
e 280 447
e 280 448
e 280 449
e 280 450
e 280 451
e 280 452
e 280 453
e 280 454
e 280 455
e 280 456
e 280 460
e 280 461
e 280 462
e 280 463
e 280 467
e 280 468
e 280 469
e 280 471
e 280 473
e 280 474
e 280 475
e 280 476
e 280 477
e 280 478
e 280 479
e 280 480
e 280 481
e 280 483
e 280 485
e 280 486
e 280 488
e 280 489
e 280 491
e 280 493
e 280 496
e 280 498
e 280 500
e 280 502
e 280 505
e 280 513
e 280 514
e 280 515
e 280 516
e 280 518
e 280 525
e 280 528
e 280 530
e 280 531
e 280 532
e 280 533
e 280 534
e 280 537
e 280 540
e 280 541
e 280 542
e 280 545
e 280 546
e 280 547
e 280 549
e 280 550
e 280 551
e 280 552
e 280 553
e 280 554
e 280 555
e 280 558
e 280 561
e 280 562
e 280 563
e 280 564
e 280 565
e 280 568
e 280 570
e 280 571
e 280 577
e 280 578
e 280 579
e 280 580
e 280 581
e 280 583
e 280 588
e 280 589
e 280 590
e 280 593
e 280 594
e 280 596
e 280 597
e 280 598
e 280 599
e 280 600
e 280 602
e 280 603
e 280 604
e 280 607
e 280 609
e 280 612
e 280 613
e 280 614
e 280 615
e 280 616
e 280 620
e 280 622
e 280 624
e 280 626
e 280 627
e 280 628
e 280 630
e 280 631
e 280 632
e 280 633
e 280 634
e 280 635
e 280 636
e 280 638
e 280 640
e 280 642
e 280 643
e 280 644
e 280 645
e 280 646
e 280 647
e 280 648
e 280 649
e 280 651
e 280 652
e 280 654
e 280 655
e 280 656
e 280 657
e 280 658
e 280 659
e 280 661
e 280 662
e 280 664
e 280 665
e 280 667
e 280 668
e 280 669
e 280 671
e 280 673
e 280 674
e 280 675
e 280 677
e 280 679
e 280 680
e 280 681
e 280 682
e 280 683
e 280 684
e 280 685
e 280 686
e 280 687
e 280 690
e 280 691
e 280 692
e 280 693
e 280 694
e 280 695
e 280 696
e 280 699
e 280 701
e 280 702
e 280 703
e 280 704
e 280 705
e 280 706
e 280 707
e 280 708
e 280 709
e 280 710
e 280 711
e 280 712
e 280 713
e 280 714
e 280 715
e 280 716
e 280 717
e 280 718
e 280 719
e 280 724
e 280 727
e 280 728
e 280 729
e 280 731
e 280 733
e 280 734
e 280 735
e 280 736
e 280 737
e 280 738
e 280 740
e 280 741
e 280 742
e 280 743
e 280 744
e 280 745
e 280 746
e 280 747
e 280 748
e 280 749
e 280 750
e 280 751
e 280 752
e 280 753
e 280 754
e 280 755
e 280 756
e 280 757
e 280 758
e 280 759
e 280 760
e 280 761
e 280 762
e 280 763
e 280 764
e 280 765
e 280 767
e 280 768
e 280 769
e 280 770
e 280 773
e 280 774
e 280 775
e 280 776
e 280 777
e 281 285
e 281 286
e 281 289
e 281 303
e 281 313
e 281 314
e 281 321
e 281 325
e 281 337
e 281 345
e 281 351
e 281 352
e 281 362
e 281 368
e 281 369
e 281 376
e 281 388
e 281 402
e 281 404
e 281 405
e 281 418
e 281 434
e 281 438
e 281 441
e 281 444
e 281 445
e 281 774
e 282 283
e 282 297
e 282 298
e 282 307
e 282 310
e 282 329
e 282 330
e 282 333
e 282 339
e 282 345
e 282 349
e 282 350
e 282 359
e 282 360
e 282 362
e 282 365
e 282 374
e 282 377
e 282 382
e 282 402
e 282 403
e 282 407
e 282 412
e 282 416
e 282 422
e 282 427
e 282 436
e 282 438
e 282 447
e 282 467
e 282 469
e 282 477
e 282 479
e 282 484
e 282 505
e 282 513
e 282 514
e 282 515
e 282 537
e 282 538
e 282 582
e 282 602
e 282 607
e 282 608
e 282 615
e 282 616
e 282 624
e 282 633
e 282 647
e 282 651
e 282 670
e 282 672
e 282 687
e 282 704
e 282 705
e 282 715
e 282 736
e 282 738
e 282 740
e 282 745
e 282 748
e 282 751
e 282 753
e 283 285
e 283 286
e 283 287
e 283 289
e 283 291
e 283 292
e 283 293
e 283 294
e 283 295
e 283 296
e 283 297
e 283 298
e 283 299
e 283 300
e 283 305
e 283 307
e 283 308
e 283 309
e 283 310
e 283 311
e 283 314
e 283 315
e 283 317
e 283 318
e 283 319
e 283 320
e 283 321
e 283 322
e 283 323
e 283 325
e 283 326
e 283 327
e 283 328
e 283 329
e 283 330
e 283 333
e 283 335
e 283 338
e 283 339
e 283 341
e 283 345
e 283 346
e 283 347
e 283 349
e 283 350
e 283 353
e 283 354
e 283 355
e 283 357
e 283 360
e 283 361
e 283 362
e 283 365
e 283 366
e 283 369
e 283 371
e 283 373
e 283 374
e 283 375
e 283 376
e 283 377
e 283 378
e 283 379
e 283 381
e 283 382
e 283 383
e 283 384
e 283 385
e 283 388
e 283 392
e 283 398
e 283 401
e 283 402
e 283 403
e 283 404
e 283 405
e 283 406
e 283 407
e 283 409
e 283 410
e 283 413
e 283 415
e 283 416
e 283 418
e 283 420
e 283 422
e 283 423
e 283 424
e 283 425
e 283 426
e 283 427
e 283 433
e 283 437
e 283 438
e 283 440
e 283 441
e 283 442
e 283 444
e 283 445
e 283 447
e 283 449
e 283 450
e 283 451
e 283 452
e 283 454
e 283 774
e 284 291
e 284 292
e 284 298
e 284 299
e 284 300
e 284 301
e 284 317
e 284 319
e 284 325
e 284 335
e 284 336
e 284 337
e 284 342
e 284 344
e 284 349
e 284 363
e 284 368
e 284 376
e 284 377
e 284 387
e 284 390
e 284 393
e 284 399
e 284 404
e 284 435
e 284 442
e 284 451
e 284 452
e 285 286
e 285 287
e 285 289
e 285 293
e 285 294
e 285 295
e 285 296
e 285 297
e 285 301
e 285 305
e 285 306
e 285 313
e 285 317
e 285 318
e 285 320
e 285 321
e 285 322
e 285 323
e 285 325
e 285 327
e 285 329
e 285 331
e 285 333
e 285 335
e 285 338
e 285 342
e 285 345
e 285 346
e 285 347
e 285 349
e 285 351
e 285 354
e 285 362
e 285 363
e 285 364
e 285 365
e 285 366
e 285 368
e 285 369
e 285 371
e 285 372
e 285 376
e 285 380
e 285 382
e 285 383
e 285 384
e 285 385
e 285 387
e 285 388
e 285 390
e 285 391
e 285 399
e 285 402
e 285 405
e 285 407
e 285 408
e 285 409
e 285 410
e 285 413
e 285 415
e 285 417
e 285 418
e 285 419
e 285 422
e 285 423
e 285 424
e 285 425
e 285 427
e 285 428
e 285 429
e 285 430
e 285 434
e 285 435
e 285 436
e 285 437
e 285 438
e 285 439
e 285 440
e 285 441
e 285 442
e 285 444
e 285 445
e 285 446
e 285 450
e 285 451
e 285 452
e 285 454
e 285 456
e 285 774
e 286 289
e 286 291
e 286 292
e 286 293
e 286 295
e 286 296
e 286 297
e 286 298
e 286 301
e 286 305
e 286 306
e 286 308
e 286 309
e 286 312
e 286 313
e 286 316
e 286 317
e 286 318
e 286 320
e 286 321
e 286 323
e 286 324
e 286 325
e 286 326
e 286 327
e 286 329
e 286 331
e 286 332
e 286 333
e 286 335
e 286 336
e 286 337
e 286 338
e 286 340
e 286 342
e 286 345
e 286 347
e 286 349
e 286 350
e 286 351
e 286 352
e 286 354
e 286 356
e 286 360
e 286 362
e 286 363
e 286 364
e 286 365
e 286 366
e 286 368
e 286 369
e 286 370
e 286 371
e 286 372
e 286 373
e 286 374
e 286 376
e 286 377
e 286 380
e 286 381
e 286 382
e 286 383
e 286 384
e 286 385
e 286 386
e 286 387
e 286 388
e 286 389
e 286 390
e 286 391
e 286 393
e 286 399
e 286 400
e 286 402
e 286 403
e 286 405
e 286 407
e 286 408
e 286 409
e 286 410
e 286 411
e 286 413
e 286 417
e 286 418
e 286 420
e 286 422
e 286 423
e 286 424
e 286 427
e 286 428
e 286 429
e 286 430
e 286 432
e 286 433
e 286 434
e 286 435
e 286 436
e 286 437
e 286 438
e 286 439
e 286 440
e 286 441
e 286 442
e 286 444
e 286 445
e 286 446
e 286 449
e 286 450
e 286 451
e 286 452
e 286 453
e 286 454
e 286 455
e 286 456
e 286 457
e 286 460
e 286 462
e 286 467
e 286 468
e 286 470
e 286 471
e 286 475
e 286 476
e 286 477
e 286 478
e 286 479
e 286 480
e 286 481
e 286 484
e 286 486
e 286 489
e 286 491
e 286 493
e 286 496
e 286 497
e 286 498
e 286 499
e 286 501
e 286 502
e 286 505
e 286 507
e 286 513
e 286 514
e 286 515
e 286 516
e 286 520
e 286 527
e 286 530
e 286 537
e 286 540
e 286 543
e 286 545
e 286 546
e 286 548
e 286 551
e 286 557
e 286 563
e 286 568
e 286 570
e 286 571
e 286 575
e 286 577
e 286 578
e 286 581
e 286 583
e 286 584
e 286 585
e 286 587
e 286 590
e 286 591
e 286 592
e 286 593
e 286 594
e 286 596
e 286 599
e 286 605
e 286 606
e 286 607
e 286 612
e 286 613
e 286 615
e 286 617
e 286 618
e 286 619
e 286 620
e 286 621
e 286 622
e 286 623
e 286 625
e 286 626
e 286 629
e 286 640
e 286 642
e 286 643
e 286 645
e 286 646
e 286 648
e 286 650
e 286 651
e 286 654
e 286 657
e 286 658
e 286 659
e 286 660
e 286 662
e 286 663
e 286 664
e 286 666
e 286 669
e 286 671
e 286 675
e 286 677
e 286 678
e 286 679
e 286 681
e 286 682
e 286 683
e 286 684
e 286 685
e 286 688
e 286 689
e 286 690
e 286 691
e 286 696
e 286 698
e 286 700
e 286 703
e 286 705
e 286 707
e 286 708
e 286 709
e 286 710
e 286 712
e 286 714
e 286 715
e 286 717
e 286 718
e 286 720
e 286 721
e 286 722
e 286 723
e 286 724
e 286 725
e 286 726
e 286 731
e 286 732
e 286 734
e 286 735
e 286 736
e 286 738
e 286 741
e 286 746
e 286 747
e 286 748
e 286 750
e 286 752
e 286 753
e 286 754
e 286 755
e 286 757
e 286 758
e 286 759
e 286 760
e 286 761
e 286 763
e 286 764
e 286 765
e 286 766
e 286 769
e 286 770
e 286 771
e 286 772
e 286 773
e 286 774
e 286 776
e 286 777
e 286 778
e 287 289
e 287 293
e 287 294
e 287 295
e 287 305
e 287 318
e 287 320
e 287 321
e 287 322
e 287 333
e 287 346
e 287 347
e 287 356
e 287 375
e 287 382
e 287 402
e 287 413
e 287 415
e 287 424
e 287 425
e 287 450
e 288 289
e 288 298
e 288 302
e 288 305
e 288 310
e 288 320
e 288 321
e 288 323
e 288 330
e 288 334
e 288 335
e 288 337
e 288 338
e 288 359
e 288 368
e 288 378
e 288 398
e 288 407
e 288 414
e 288 420
e 288 422
e 288 423
e 288 443
e 288 447
e 288 449
e 288 455
e 289 290
e 289 291
e 289 292
e 289 293
e 289 294
e 289 297
e 289 299
e 289 300
e 289 302
e 289 305
e 289 308
e 289 309
e 289 310
e 289 313
e 289 315
e 289 316
e 289 318
e 289 319
e 289 320
e 289 321
e 289 322
e 289 323
e 289 325
e 289 326
e 289 329
e 289 333
e 289 335
e 289 336
e 289 337
e 289 338
e 289 340
e 289 343
e 289 345
e 289 346
e 289 347
e 289 349
e 289 351
e 289 353
e 289 354
e 289 356
e 289 357
e 289 362
e 289 365
e 289 367
e 289 368
e 289 369
e 289 370
e 289 372
e 289 376
e 289 378
e 289 380
e 289 382
e 289 383
e 289 385
e 289 386
e 289 388
e 289 392
e 289 394
e 289 395
e 289 396
e 289 398
e 289 399
e 289 401
e 289 402
e 289 404
e 289 405
e 289 407
e 289 409
e 289 413
e 289 415
e 289 418
e 289 420
e 289 422
e 289 423
e 289 424
e 289 425
e 289 427
e 289 429
e 289 430
e 289 433
e 289 434
e 289 436
e 289 437
e 289 438
e 289 439
e 289 440
e 289 441
e 289 442
e 289 444
e 289 445
e 289 446
e 289 448
e 289 449
e 289 451
e 289 454
e 289 455
e 289 774
e 290 326
e 290 329
e 290 335
e 290 343
e 290 357
e 290 368
e 290 372
e 290 376
e 290 405
e 290 436
e 290 446
e 290 448
e 291 292
e 291 298
e 291 299
e 291 300
e 291 304
e 291 305
e 291 307
e 291 312
e 291 318
e 291 319
e 291 325
e 291 329
e 291 335
e 291 338
e 291 345
e 291 346
e 291 347
e 291 349
e 291 350
e 291 358
e 291 362
e 291 368
e 291 370
e 291 371
e 291 373
e 291 382
e 291 391
e 291 399
e 291 402
e 291 404
e 291 413
e 291 415
e 291 424
e 291 425
e 291 428
e 291 432
e 291 435
e 291 438
e 291 451
e 291 455
e 291 460
e 291 474
e 291 475
e 291 478
e 291 479
e 291 480
e 291 481
e 291 483
e 291 484
e 291 485
e 291 491
e 291 498
e 291 501
e 291 502
e 291 508
e 291 509
e 291 510
e 291 511
e 291 512
e 291 513
e 291 515
e 291 516
e 291 537
e 291 568
e 291 578
e 291 582
e 291 584
e 291 599
e 291 615
e 291 617
e 291 618
e 291 619
e 291 621
e 291 623
e 291 645
e 291 648
e 291 651
e 291 662
e 291 663
e 291 688
e 291 695
e 291 696
e 291 700
e 291 707
e 291 710
e 291 720
e 291 725
e 291 731
e 291 732
e 291 741
e 291 743
e 291 773
e 292 299
e 292 300
e 292 301
e 292 303
e 292 305
e 292 308
e 292 309
e 292 315
e 292 316
e 292 317
e 292 319
e 292 320
e 292 321
e 292 322
e 292 325
e 292 329
e 292 332
e 292 333
e 292 336
e 292 337
e 292 340
e 292 344
e 292 345
e 292 347
e 292 351
e 292 352
e 292 354
e 292 356
e 292 360
e 292 362
e 292 370
e 292 374
e 292 376
e 292 377
e 292 393
e 292 399
e 292 403
e 292 404
e 292 413
e 292 420
e 292 422
e 292 424
e 292 433
e 292 434
e 292 435
e 292 437
e 292 442
e 292 450
e 292 454
e 292 774
e 293 294
e 293 304
e 293 305
e 293 310
e 293 316
e 293 318
e 293 320
e 293 321
e 293 322
e 293 323
e 293 325
e 293 326
e 293 327
e 293 329
e 293 333
e 293 335
e 293 346
e 293 347
e 293 353
e 293 354
e 293 357
e 293 359
e 293 360
e 293 361
e 293 362
e 293 365
e 293 368
e 293 372
e 293 376
e 293 382
e 293 383
e 293 384
e 293 385
e 293 402
e 293 405
e 293 412
e 293 413
e 293 415
e 293 417
e 293 418
e 293 419
e 293 424
e 293 425
e 293 434
e 293 435
e 293 436
e 293 438
e 293 440
e 293 441
e 293 444
e 293 445
e 293 450
e 293 774
e 294 305
e 294 318
e 294 321
e 294 322
e 294 325
e 294 333
e 294 346
e 294 347
e 294 354
e 294 382
e 294 385
e 294 402
e 294 413
e 294 415
e 294 424
e 294 425
e 294 450
e 295 296
e 295 297
e 295 310
e 295 320
e 295 331
e 295 338
e 295 347
e 295 354
e 295 356
e 295 362
e 295 364
e 295 366
e 295 368
e 295 371
e 295 375
e 295 385
e 295 390
e 295 391
e 295 402
e 295 408
e 295 409
e 295 410
e 295 413
e 295 423
e 295 425
e 295 428
e 295 452
e 296 297
e 296 298
e 296 310
e 296 317
e 296 321
e 296 331
e 296 335
e 296 338
e 296 347
e 296 362
e 296 364
e 296 366
e 296 368
e 296 385
e 296 391
e 296 405
e 296 408
e 296 409
e 296 423
e 296 428
e 296 435
e 296 438
e 296 442
e 296 452
e 296 454
e 296 456
e 297 298
e 297 304
e 297 309
e 297 310
e 297 320
e 297 325
e 297 327
e 297 338
e 297 345
e 297 347
e 297 349
e 297 350
e 297 354
e 297 356
e 297 357
e 297 362
e 297 366
e 297 371
e 297 373
e 297 374
e 297 381
e 297 382
e 297 392
e 297 400
e 297 402
e 297 405
e 297 409
e 297 410
e 297 422
e 297 423
e 297 427
e 297 428
e 297 432
e 297 438
e 297 442
e 297 449
e 297 451
e 297 452
e 297 455
e 297 458
e 297 459
e 297 460
e 297 461
e 297 462
e 297 463
e 297 467
e 297 473
e 297 475
e 297 477
e 297 480
e 297 484
e 297 486
e 297 491
e 297 496
e 297 502
e 297 505
e 297 513
e 297 514
e 297 515
e 297 516
e 297 523
e 297 524
e 297 525
e 297 526
e 297 530
e 297 537
e 297 546
e 297 551
e 297 562
e 297 563
e 297 568
e 297 571
e 297 577
e 297 581
e 297 582
e 297 583
e 297 599
e 297 602
e 297 608
e 297 611
e 297 612
e 297 614
e 297 615
e 297 616
e 297 623
e 297 626
e 297 632
e 297 633
e 297 636
e 297 639
e 297 640
e 297 642
e 297 644
e 297 648
e 297 651
e 297 654
e 297 655
e 297 657
e 297 658
e 297 662
e 297 670
e 297 671
e 297 672
e 297 680
e 297 681
e 297 682
e 297 684
e 297 687
e 297 691
e 297 692
e 297 693
e 297 696
e 297 703
e 297 704
e 297 705
e 297 713
e 297 715
e 297 716
e 297 718
e 297 719
e 297 727
e 297 728
e 297 729
e 297 731
e 297 733
e 297 734
e 297 735
e 297 737
e 297 738
e 297 740
e 297 741
e 297 742
e 297 745
e 297 748
e 297 749
e 297 751
e 297 752
e 297 753
e 297 754
e 297 756
e 297 757
e 297 759
e 297 760
e 297 762
e 297 767
e 297 768
e 297 770
e 297 773
e 297 774
e 297 775
e 297 777
e 298 299
e 298 300
e 298 305
e 298 307
e 298 308
e 298 309
e 298 310
e 298 312
e 298 317
e 298 319
e 298 320
e 298 321
e 298 325
e 298 327
e 298 329
e 298 330
e 298 334
e 298 335
e 298 336
e 298 337
e 298 338
e 298 339
e 298 340
e 298 342
e 298 343
e 298 345
e 298 347
e 298 348
e 298 349
e 298 350
e 298 352
e 298 354
e 298 355
e 298 357
e 298 359
e 298 362
e 298 364
e 298 366
e 298 368
e 298 371
e 298 373
e 298 375
e 298 376
e 298 377
e 298 378
e 298 379
e 298 381
e 298 382
e 298 383
e 298 389
e 298 391
e 298 397
e 298 398
e 298 399
e 298 400
e 298 401
e 298 402
e 298 403
e 298 404
e 298 405
e 298 407
e 298 409
e 298 410
e 298 411
e 298 412
e 298 414
e 298 421
e 298 422
e 298 423
e 298 426
e 298 427
e 298 428
e 298 432
e 298 433
e 298 435
e 298 436
e 298 438
e 298 440
e 298 442
e 298 443
e 298 446
e 298 447
e 298 449
e 298 451
e 298 455
e 298 456
e 298 457
e 298 460
e 298 461
e 298 467
e 298 468
e 298 469
e 298 471
e 298 473
e 298 475
e 298 477
e 298 478
e 298 479
e 298 480
e 298 481
e 298 484
e 298 485
e 298 486
e 298 489
e 298 491
e 298 493
e 298 494
e 298 495
e 298 496
e 298 497
e 298 498
e 298 499
e 298 500
e 298 502
e 298 505
e 298 513
e 298 514
e 298 515
e 298 516
e 298 518
e 298 519
e 298 520
e 298 527
e 298 530
e 298 544
e 298 545
e 298 546
e 298 547
e 298 549
e 298 551
e 298 554
e 298 555
e 298 558
e 298 559
e 298 563
e 298 568
e 298 570
e 298 571
e 298 577
e 298 579
e 298 581
e 298 583
e 298 584
e 298 585
e 298 586
e 298 587
e 298 589
e 298 590
e 298 591
e 298 593
e 298 594
e 298 599
e 298 602
e 298 606
e 298 607
e 298 609
e 298 613
e 298 614
e 298 615
e 298 616
e 298 618
e 298 619
e 298 621
e 298 622
e 298 623
e 298 624
e 298 625
e 298 626
e 298 632
e 298 633
e 298 637
e 298 640
e 298 641
e 298 643
e 298 646
e 298 647
e 298 648
e 298 649
e 298 651
e 298 652
e 298 653
e 298 657
e 298 658
e 298 659
e 298 661
e 298 662
e 298 663
e 298 666
e 298 667
e 298 668
e 298 669
e 298 675
e 298 677
e 298 678
e 298 679
e 298 680
e 298 681
e 298 682
e 298 684
e 298 685
e 298 689
e 298 690
e 298 691
e 298 692
e 298 694
e 298 696
e 298 698
e 298 700
e 298 702
e 298 704
e 298 705
e 298 707
e 298 709
e 298 710
e 298 711
e 298 712
e 298 713
e 298 714
e 298 715
e 298 716
e 298 717
e 298 718
e 298 719
e 298 720
e 298 726
e 298 731
e 298 732
e 298 733
e 298 734
e 298 736
e 298 740
e 298 741
e 298 744
e 298 746
e 298 747
e 298 748
e 298 749
e 298 750
e 298 751
e 298 753
e 298 754
e 298 755
e 298 756
e 298 759
e 298 761
e 298 762
e 298 763
e 298 765
e 298 767
e 298 769
e 298 770
e 298 771
e 298 772
e 298 775
e 298 776
e 298 777
e 298 778
e 299 300
e 299 301
e 299 313
e 299 319
e 299 320
e 299 321
e 299 325
e 299 335
e 299 345
e 299 349
e 299 354
e 299 355
e 299 368
e 299 370
e 299 373
e 299 375
e 299 379
e 299 381
e 299 382
e 299 399
e 299 402
e 299 404
e 299 412
e 299 413
e 299 415
e 299 417
e 299 425
e 299 451
e 300 301
e 300 307
e 300 313
e 300 319
e 300 320
e 300 321
e 300 325
e 300 335
e 300 337
e 300 338
e 300 345
e 300 349
e 300 354
e 300 355
e 300 368
e 300 370
e 300 373
e 300 375
e 300 379
e 300 381
e 300 382
e 300 399
e 300 402
e 300 404
e 300 412
e 300 413
e 300 415
e 300 417
e 300 425
e 300 432
e 300 438
e 300 451
e 300 468
e 300 475
e 300 476
e 300 477
e 300 486
e 300 489
e 300 491
e 300 494
e 300 495
e 300 498
e 300 513
e 300 544
e 300 550
e 300 552
e 300 559
e 300 563
e 300 568
e 300 570
e 300 571
e 300 572
e 300 574
e 300 577
e 300 580
e 300 581
e 300 599
e 300 606
e 300 607
e 300 613
e 300 622
e 300 623
e 300 637
e 300 646
e 300 651
e 300 658
e 300 666
e 300 676
e 300 684
e 300 694
e 300 698
e 300 699
e 300 701
e 300 714
e 300 726
e 300 741
e 300 743
e 300 749
e 300 767
e 300 771
e 301 303
e 301 306
e 301 313
e 301 315
e 301 317
e 301 320
e 301 321
e 301 324
e 301 325
e 301 327
e 301 332
e 301 335
e 301 336
e 301 337
e 301 338
e 301 342
e 301 344
e 301 345
e 301 351
e 301 352
e 301 354
e 301 362
e 301 363
e 301 364
e 301 376
e 301 377
e 301 379
e 301 381
e 301 387
e 301 390
e 301 393
e 301 404
e 301 417
e 301 435
e 301 437
e 301 442
e 301 452
e 301 454
e 301 456
e 302 310
e 302 323
e 302 326
e 302 335
e 302 337
e 302 362
e 302 367
e 302 368
e 302 372
e 302 377
e 302 378
e 302 420
e 302 422
e 302 423
e 302 437
e 302 438
e 302 440
e 302 446
e 302 449
e 302 455
e 303 313
e 303 314
e 303 315
e 303 319
e 303 321
e 303 325
e 303 337
e 303 344
e 303 345
e 303 351
e 303 352
e 303 362
e 303 368
e 303 376
e 303 393
e 303 402
e 303 404
e 303 405
e 303 444
e 303 445
e 304 307
e 304 309
e 304 310
e 304 316
e 304 321
e 304 323
e 304 327
e 304 329
e 304 337
e 304 338
e 304 345
e 304 347
e 304 349
e 304 350
e 304 354
e 304 357
e 304 361
e 304 362
e 304 367
e 304 368
e 304 370
e 304 371
e 304 373
e 304 376
e 304 380
e 304 382
e 304 383
e 304 399
e 304 402
e 304 412
e 304 417
e 304 418
e 304 419
e 304 422
e 304 428
e 304 432
e 304 435
e 304 436
e 304 437
e 304 438
e 304 446
e 304 457
e 304 460
e 304 462
e 304 467
e 304 475
e 304 477
e 304 478
e 304 479
e 304 480
e 304 481
e 304 484
e 304 491
e 304 496
e 304 502
e 304 505
e 304 509
e 304 510
e 304 511
e 304 512
e 304 513
e 304 514
e 304 515
e 304 521
e 304 530
e 304 546
e 304 568
e 304 577
e 304 578
e 304 580
e 304 581
e 304 582
e 304 588
e 304 599
e 304 604
e 304 607
e 304 610
e 304 615
e 304 617
e 304 618
e 304 621
e 304 623
e 304 633
e 304 635
e 304 639
e 304 640
e 304 642
e 304 644
e 304 648
e 304 651
e 304 653
e 304 662
e 304 663
e 304 672
e 304 674
e 304 678
e 304 681
e 304 682
e 304 684
e 304 687
e 304 693
e 304 696
e 304 697
e 304 704
e 304 707
e 304 708
e 304 716
e 304 718
e 304 724
e 304 730
e 304 731
e 304 734
e 304 736
e 304 738
e 304 739
e 304 742
e 304 744
e 304 750
e 304 754
e 304 755
e 304 762
e 304 766
e 304 769
e 304 773
e 304 775
e 304 778
e 305 309
e 305 310
e 305 314
e 305 315
e 305 316
e 305 317
e 305 318
e 305 319
e 305 320
e 305 321
e 305 322
e 305 325
e 305 330
e 305 333
e 305 334
e 305 337
e 305 338
e 305 345
e 305 346
e 305 347
e 305 348
e 305 353
e 305 354
e 305 359
e 305 362
e 305 368
e 305 371
e 305 374
e 305 376
e 305 377
e 305 378
e 305 382
e 305 383
e 305 389
e 305 397
e 305 398
e 305 401
e 305 402
e 305 403
e 305 405
e 305 406
e 305 407
e 305 410
e 305 413
e 305 414
e 305 415
e 305 420
e 305 422
e 305 423
e 305 424
e 305 425
e 305 437
e 305 438
e 305 442
e 305 443
e 305 444
e 305 445
e 305 447
e 305 449
e 305 450
e 305 451
e 305 455
e 305 456
e 306 313
e 306 317
e 306 320
e 306 321
e 306 324
e 306 325
e 306 327
e 306 331
e 306 332
e 306 335
e 306 336
e 306 338
e 306 342
e 306 354
e 306 362
e 306 363
e 306 364
e 306 366
e 306 368
e 306 385
e 306 387
e 306 390
e 306 393
e 306 408
e 306 417
e 306 423
e 306 435
e 306 438
e 306 442
e 306 452
e 306 454
e 306 456
e 307 310
e 307 312
e 307 319
e 307 321
e 307 325
e 307 328
e 307 329
e 307 330
e 307 338
e 307 339
e 307 341
e 307 345
e 307 347
e 307 349
e 307 350
e 307 356
e 307 357
e 307 365
e 307 371
e 307 374
e 307 381
e 307 382
e 307 391
e 307 399
e 307 403
e 307 406
e 307 407
e 307 416
e 307 423
e 307 427
e 307 428
e 307 432
e 307 435
e 307 438
e 307 447
e 307 448
e 307 453
e 307 455
e 307 460
e 307 461
e 307 468
e 307 471
e 307 475
e 307 476
e 307 477
e 307 478
e 307 480
e 307 484
e 307 486
e 307 491
e 307 498
e 307 500
e 307 502
e 307 509
e 307 510
e 307 511
e 307 512
e 307 513
e 307 514
e 307 515
e 307 516
e 307 530
e 307 531
e 307 532
e 307 533
e 307 534
e 307 537
e 307 545
e 307 552
e 307 563
e 307 568
e 307 571
e 307 572
e 307 574
e 307 577
e 307 578
e 307 580
e 307 582
e 307 593
e 307 599
e 307 607
e 307 609
e 307 614
e 307 615
e 307 617
e 307 621
e 307 623
e 307 626
e 307 632
e 307 633
e 307 637
e 307 651
e 307 656
e 307 657
e 307 659
e 307 661
e 307 662
e 307 663
e 307 665
e 307 668
e 307 676
e 307 679
e 307 680
e 307 682
e 307 695
e 307 696
e 307 701
e 307 707
e 307 714
e 307 731
e 307 732
e 307 734
e 307 741
e 307 743
e 307 749
e 307 767
e 307 773
e 308 309
e 308 310
e 308 320
e 308 321
e 308 325
e 308 329
e 308 333
e 308 340
e 308 347
e 308 350
e 308 352
e 308 356
e 308 360
e 308 362
e 308 370
e 308 371
e 308 374
e 308 375
e 308 379
e 308 380
e 308 391
e 308 399
e 308 402
e 308 403
e 308 413
e 308 416
e 308 420
e 308 422
e 308 424
e 308 428
e 308 433
e 308 434
e 308 437
e 308 438
e 308 441
e 308 450
e 308 454
e 308 455
e 308 460
e 308 467
e 308 471
e 308 479
e 308 496
e 308 497
e 308 498
e 308 499
e 308 513
e 308 514
e 308 520
e 308 527
e 308 530
e 308 583
e 308 587
e 308 590
e 308 621
e 308 625
e 308 626
e 308 646
e 308 651
e 308 663
e 308 678
e 308 681
e 308 684
e 308 691
e 308 696
e 308 707
e 308 734
e 308 747
e 308 750
e 308 761
e 308 765
e 308 769
e 308 774
e 308 777
e 309 310
e 309 316
e 309 320
e 309 321
e 309 322
e 309 325
e 309 327
e 309 329
e 309 333
e 309 338
e 309 340
e 309 347
e 309 349
e 309 350
e 309 356
e 309 360
e 309 361
e 309 362
e 309 365
e 309 367
e 309 370
e 309 374
e 309 375
e 309 379
e 309 380
e 309 382
e 309 399
e 309 400
e 309 402
e 309 403
e 309 413
e 309 416
e 309 417
e 309 419
e 309 420
e 309 421
e 309 422
e 309 424
e 309 432
e 309 433
e 309 434
e 309 437
e 309 438
e 309 441
e 309 442
e 309 446
e 309 449
e 309 450
e 309 454
e 309 456
e 309 460
e 309 461
e 309 467
e 309 469
e 309 475
e 309 476
e 309 477
e 309 479
e 309 485
e 309 486
e 309 491
e 309 496
e 309 498
e 309 502
e 309 505
e 309 513
e 309 514
e 309 515
e 309 516
e 309 530
e 309 535
e 309 540
e 309 570
e 309 571
e 309 581
e 309 593
e 309 599
e 309 612
e 309 622
e 309 626
e 309 633
e 309 640
e 309 642
e 309 643
e 309 647
e 309 651
e 309 654
e 309 658
e 309 659
e 309 668
e 309 671
e 309 677
e 309 681
e 309 682
e 309 684
e 309 696
e 309 705
e 309 706
e 309 711
e 309 713
e 309 717
e 309 718
e 309 731
e 309 734
e 309 735
e 309 736
e 309 741
e 309 745
e 309 746
e 309 747
e 309 748
e 309 752
e 309 753
e 309 754
e 309 756
e 309 757
e 309 758
e 309 760
e 309 761
e 309 774
e 309 777
e 310 316
e 310 319
e 310 320
e 310 321
e 310 322
e 310 323
e 310 325
e 310 329
e 310 330
e 310 333
e 310 334
e 310 335
e 310 336
e 310 337
e 310 338
e 310 339
e 310 340
e 310 341
e 310 347
e 310 349
e 310 350
e 310 354
e 310 356
e 310 357
e 310 359
e 310 360
e 310 362
e 310 365
e 310 368
e 310 369
e 310 370
e 310 374
e 310 375
e 310 376
e 310 378
e 310 379
e 310 380
e 310 381
e 310 382
e 310 398
e 310 402
e 310 403
e 310 405
e 310 407
e 310 409
e 310 412
e 310 413
e 310 414
e 310 416
e 310 417
e 310 418
e 310 419
e 310 420
e 310 422
e 310 423
e 310 425
e 310 427
e 310 435
e 310 436
e 310 438
e 310 440
e 310 441
e 310 443
e 310 444
e 310 447
e 310 449
e 310 455
e 311 320
e 311 328
e 311 329
e 311 374
e 311 392
e 311 402
e 311 406
e 311 416
e 311 424
e 311 426
e 311 437
e 311 447
e 311 449
e 311 450
e 312 320
e 312 329
e 312 334
e 312 336
e 312 338
e 312 343
e 312 345
e 312 347
e 312 350
e 312 354
e 312 357
e 312 358
e 312 362
e 312 364
e 312 368
e 312 371
e 312 373
e 312 382
e 312 383
e 312 389
e 312 391
e 312 398
e 312 399
e 312 402
e 312 403
e 312 407
e 312 409
e 312 414
e 312 421
e 312 426
e 312 427
e 312 428
e 312 432
e 312 433
e 312 435
e 312 438
e 312 440
e 312 443
e 312 449
e 312 455
e 312 461
e 312 467
e 312 474
e 312 475
e 312 478
e 312 479
e 312 480
e 312 481
e 312 483
e 312 484
e 312 485
e 312 486
e 312 489
e 312 498
e 312 502
e 312 505
e 312 508
e 312 513
e 312 515
e 312 516
e 312 518
e 312 530
e 312 537
e 312 545
e 312 546
e 312 563
e 312 568
e 312 570
e 312 579
e 312 582
e 312 583
e 312 584
e 312 585
e 312 587
e 312 593
e 312 599
e 312 607
e 312 617
e 312 618
e 312 619
e 312 621
e 312 623
e 312 640
e 312 645
e 312 648
e 312 660
e 312 662
e 312 669
e 312 678
e 312 681
e 312 682
e 312 690
e 312 695
e 312 696
e 312 700
e 312 702
e 312 707
e 312 709
e 312 710
e 312 716
e 312 717
e 312 718
e 312 720
e 312 725
e 312 732
e 312 740
e 312 741
e 312 743
e 312 744
e 312 754
e 312 755
e 312 759
e 312 761
e 312 771
e 312 772
e 312 776
e 313 314
e 313 317
e 313 318
e 313 320
e 313 321
e 313 324
e 313 325
e 313 327
e 313 332
e 313 335
e 313 336
e 313 337
e 313 338
e 313 342
e 313 345
e 313 352
e 313 354
e 313 362
e 313 363
e 313 364
e 313 368
e 313 376
e 313 379
e 313 381
e 313 387
e 313 390
e 313 393
e 313 394
e 313 395
e 313 396
e 313 402
e 313 404
e 313 405
e 313 407
e 313 409
e 313 417
e 313 429
e 313 430
e 313 434
e 313 435
e 313 437
e 313 442
e 313 444
e 313 445
e 313 448
e 313 452
e 313 454
e 313 456
e 314 315
e 314 321
e 314 325
e 314 333
e 314 337
e 314 345
e 314 352
e 314 362
e 314 368
e 314 376
e 314 402
e 314 404
e 314 405
e 314 413
e 314 415
e 314 425
e 314 438
e 314 444
e 314 445
e 315 325
e 315 333
e 315 337
e 315 344
e 315 345
e 315 351
e 315 352
e 315 353
e 315 362
e 315 376
e 315 393
e 315 413
e 315 415
e 315 418
e 315 425
e 315 438
e 316 321
e 316 322
e 316 323
e 316 325
e 316 329
e 316 333
e 316 347
e 316 357
e 316 362
e 316 365
e 316 368
e 316 370
e 316 376
e 316 380
e 316 402
e 316 403
e 316 412
e 316 417
e 316 418
e 316 419
e 316 424
e 316 434
e 316 435
e 316 437
e 316 438
e 316 442
e 316 450
e 316 774
e 317 320
e 317 321
e 317 324
e 317 325
e 317 327
e 317 331
e 317 332
e 317 335
e 317 336
e 317 337
e 317 338
e 317 342
e 317 344
e 317 348
e 317 349
e 317 354
e 317 362
e 317 363
e 317 364
e 317 366
e 317 368
e 317 371
e 317 374
e 317 376
e 317 377
e 317 378
e 317 385
e 317 387
e 317 390
e 317 392
e 317 393
e 317 397
e 317 399
e 317 402
e 317 408
e 317 410
e 317 417
e 317 420
e 317 423
e 317 426
e 317 428
e 317 435
e 317 436
e 317 437
e 317 438
e 317 442
e 317 447
e 317 449
e 317 450
e 317 451
e 317 452
e 317 454
e 317 456
e 318 319
e 318 321
e 318 322
e 318 325
e 318 326
e 318 329
e 318 333
e 318 337
e 318 338
e 318 345
e 318 346
e 318 347
e 318 349
e 318 354
e 318 368
e 318 376
e 318 382
e 318 384
e 318 385
e 318 386
e 318 394
e 318 395
e 318 396
e 318 399
e 318 402
e 318 407
e 318 409
e 318 413
e 318 415
e 318 422
e 318 423
e 318 424
e 318 425
e 318 427
e 318 429
e 318 430
e 318 434
e 318 435
e 318 436
e 318 437
e 318 439
e 318 442
e 318 444
e 318 448
e 318 451
e 318 455
e 319 320
e 319 321
e 319 322
e 319 325
e 319 327
e 319 329
e 319 330
e 319 335
e 319 337
e 319 339
e 319 341
e 319 344
e 319 346
e 319 347
e 319 349
e 319 350
e 319 352
e 319 353
e 319 355
e 319 357
e 319 361
e 319 362
e 319 368
e 319 369
e 319 370
e 319 373
e 319 375
e 319 379
e 319 381
e 319 382
e 319 384
e 319 388
e 319 393
e 319 399
e 319 402
e 319 404
e 319 407
e 319 412
e 319 413
e 319 415
e 319 417
e 319 424
e 319 425
e 319 444
e 319 451
e 320 321
e 320 322
e 320 323
e 320 324
e 320 325
e 320 326
e 320 327
e 320 328
e 320 329
e 320 330
e 320 332
e 320 334
e 320 335
e 320 336
e 320 337
e 320 338
e 320 339
e 320 340
e 320 341
e 320 342
e 320 343
e 320 345
e 320 346
e 320 347
e 320 349
e 320 350
e 320 353
e 320 354
e 320 355
e 320 356
e 320 357
e 320 359
e 320 360
e 320 361
e 320 362
e 320 363
e 320 364
e 320 365
e 320 368
e 320 369
e 320 370
e 320 372
e 320 373
e 320 374
e 320 375
e 320 377
e 320 378
e 320 379
e 320 380
e 320 381
e 320 382
e 320 383
e 320 384
e 320 387
e 320 389
e 320 390
e 320 391
e 320 392
e 320 393
e 320 398
e 320 399
e 320 400
e 320 401
e 320 402
e 320 403
e 320 404
e 320 405
e 320 406
e 320 407
e 320 408
e 320 409
e 320 410
e 320 411
e 320 412
e 320 413
e 320 414
e 320 415
e 320 416
e 320 417
e 320 418
e 320 419
e 320 420
e 320 421
e 320 422
e 320 423
e 320 424
e 320 425
e 320 426
e 320 427
e 320 428
e 320 432
e 320 433
e 320 434
e 320 435
e 320 436
e 320 437
e 320 438
e 320 439
e 320 440
e 320 441
e 320 442
e 320 443
e 320 444
e 320 445
e 320 446
e 320 447
e 320 448
e 320 449
e 320 450
e 320 451
e 320 452
e 320 454
e 320 455
e 320 456
e 320 457
e 320 460
e 320 461
e 320 462
e 320 467
e 320 473
e 320 477
e 320 479
e 320 480
e 320 481
e 320 485
e 320 486
e 320 489
e 320 491
e 320 502
e 320 505
e 320 513
e 320 514
e 320 516
e 320 530
e 320 536
e 320 537
e 320 545
e 320 547
e 320 551
e 320 552
e 320 554
e 320 555
e 320 558
e 320 563
e 320 566
e 320 568
e 320 570
e 320 571
e 320 577
e 320 578
e 320 581
e 320 593
e 320 594
e 320 596
e 320 599
e 320 601
e 320 607
e 320 623
e 320 626
e 320 640
e 320 642
e 320 643
e 320 646
e 320 648
e 320 649
e 320 650
e 320 651
e 320 652
e 320 653
e 320 657
e 320 658
e 320 662
e 320 664
e 320 667
e 320 675
e 320 676
e 320 677
e 320 679
e 320 682
e 320 684
e 320 690
e 320 696
e 320 711
e 320 714
e 320 715
e 320 716
e 320 718
e 320 719
e 320 721
e 320 731
e 320 733
e 320 734
e 320 740
e 320 741
e 320 744
e 320 746
e 320 747
e 320 748
e 320 751
e 320 752
e 320 754
e 320 755
e 320 756
e 320 757
e 320 758
e 320 759
e 320 761
e 320 762
e 320 763
e 320 764
e 320 765
e 320 769
e 320 770
e 320 773
e 320 774
e 320 775
e 320 777
e 320 778
e 321 322
e 321 323
e 321 325
e 321 329
e 321 330
e 321 331
e 321 333
e 321 334
e 321 335
e 321 337
e 321 338
e 321 339
e 321 340
e 321 341
e 321 345
e 321 346
e 321 347
e 321 348
e 321 349
e 321 350
e 321 352
e 321 354
e 321 355
e 321 356
e 321 357
e 321 359
e 321 362
e 321 364
e 321 365
e 321 366
e 321 368
e 321 369
e 321 371
e 321 372
e 321 373
e 321 375
e 321 376
e 321 377
e 321 378
e 321 379
e 321 381
e 321 382
e 321 383
e 321 384
e 321 385
e 321 386
e 321 387
e 321 389
e 321 390
e 321 397
e 321 398
e 321 399
e 321 401
e 321 402
e 321 404
e 321 405
e 321 406
e 321 407
e 321 408
e 321 410
e 321 412
e 321 413
e 321 414
e 321 415
e 321 416
e 321 417
e 321 418
e 321 419
e 321 420
e 321 422
e 321 423
e 321 424
e 321 425
e 321 427
e 321 433
e 321 434
e 321 435
e 321 436
e 321 437
e 321 438
e 321 439
e 321 440
e 321 441
e 321 442
e 321 443
e 321 444
e 321 445
e 321 447
e 321 449
e 321 450
e 321 451
e 321 452
e 321 454
e 321 455
e 321 456
e 321 774
e 322 325
e 322 329
e 322 333
e 322 341
e 322 346
e 322 347
e 322 350
e 322 369
e 322 375
e 322 379
e 322 381
e 322 382
e 322 402
e 322 403
e 322 413
e 322 415
e 322 424
e 322 425
e 322 444
e 322 450
e 323 326
e 323 327
e 323 329
e 323 333
e 323 335
e 323 337
e 323 347
e 323 353
e 323 357
e 323 359
e 323 360
e 323 361
e 323 362
e 323 365
e 323 368
e 323 372
e 323 376
e 323 378
e 323 383
e 323 384
e 323 402
e 323 405
e 323 412
e 323 417
e 323 418
e 323 419
e 323 420
e 323 422
e 323 423
e 323 434
e 323 435
e 323 436
e 323 438
e 323 440
e 323 441
e 323 444
e 323 445
e 323 449
e 323 455
e 323 774
e 324 325
e 324 327
e 324 332
e 324 336
e 324 338
e 324 342
e 324 354
e 324 362
e 324 363
e 324 387
e 324 390
e 324 393
e 324 435
e 324 442
e 324 452
e 324 456
e 325 326
e 325 327
e 325 328
e 325 329
e 325 332
e 325 333
e 325 335
e 325 336
e 325 337
e 325 338
e 325 339
e 325 340
e 325 341
e 325 342
e 325 344
e 325 345
e 325 346
e 325 347
e 325 349
e 325 350
e 325 351
e 325 352
e 325 353
e 325 354
e 325 355
e 325 356
e 325 357
e 325 360
e 325 362
e 325 363
e 325 364
e 325 365
e 325 368
e 325 369
e 325 370
e 325 373
e 325 374
e 325 375
e 325 376
e 325 377
e 325 378
e 325 379
e 325 380
e 325 381
e 325 382
e 325 383
e 325 385
e 325 386
e 325 387
e 325 388
e 325 389
e 325 390
e 325 392
e 325 393
e 325 394
e 325 395
e 325 396
e 325 398
e 325 399
e 325 401
e 325 402
e 325 403
e 325 404
e 325 405
e 325 406
e 325 407
e 325 409
e 325 412
e 325 413
e 325 414
e 325 415
e 325 416
e 325 417
e 325 418
e 325 419
e 325 420
e 325 422
e 325 423
e 325 424
e 325 427
e 325 429
e 325 430
e 325 433
e 325 434
e 325 435
e 325 437
e 325 438
e 325 439
e 325 440
e 325 441
e 325 442
e 325 443
e 325 444
e 325 445
e 325 448
e 325 450
e 325 451
e 325 452
e 325 454
e 325 455
e 325 456
e 325 774
e 326 327
e 326 329
e 326 333
e 326 335
e 326 336
e 326 337
e 326 338
e 326 343
e 326 345
e 326 347
e 326 349
e 326 353
e 326 361
e 326 362
e 326 365
e 326 367
e 326 368
e 326 372
e 326 376
e 326 377
e 326 378
e 326 383
e 326 384
e 326 386
e 326 394
e 326 395
e 326 396
e 326 405
e 326 407
e 326 409
e 326 422
e 326 423
e 326 429
e 326 430
e 326 436
e 326 437
e 326 438
e 326 439
e 326 440
e 326 446
e 326 448
e 326 449
e 326 455
e 327 329
e 327 332
e 327 335
e 327 336
e 327 338
e 327 341
e 327 342
e 327 347
e 327 349
e 327 353
e 327 354
e 327 355
e 327 356
e 327 357
e 327 361
e 327 362
e 327 363
e 327 364
e 327 365
e 327 367
e 327 369
e 327 370
e 327 373
e 327 380
e 327 381
e 327 382
e 327 383
e 327 384
e 327 387
e 327 388
e 327 390
e 327 393
e 327 412
e 327 417
e 327 419
e 327 423
e 327 435
e 327 437
e 327 438
e 327 439
e 327 440
e 327 442
e 327 446
e 327 452
e 327 454
e 327 456
e 327 458
e 327 459
e 327 460
e 327 461
e 327 462
e 327 477
e 327 484
e 327 490
e 327 491
e 327 492
e 327 513
e 327 514
e 327 515
e 327 516
e 327 523
e 327 524
e 327 525
e 327 526
e 327 530
e 327 537
e 327 547
e 327 551
e 327 558
e 327 571
e 327 593
e 327 594
e 327 599
e 327 609
e 327 614
e 327 623
e 327 636
e 327 646
e 327 648
e 327 649
e 327 651
e 327 652
e 327 658
e 327 659
e 327 661
e 327 681
e 327 682
e 327 684
e 327 696
e 327 713
e 327 714
e 327 715
e 327 731
e 327 734
e 327 749
e 327 756
e 327 761
e 328 329
e 328 347
e 328 356
e 328 357
e 328 374
e 328 392
e 328 402
e 328 406
e 328 416
e 328 426
e 328 437
e 328 447
e 328 449
e 328 450
e 329 330
e 329 333
e 329 335
e 329 338
e 329 339
e 329 341
e 329 342
e 329 343
e 329 346
e 329 347
e 329 349
e 329 350
e 329 352
e 329 354
e 329 355
e 329 356
e 329 357
e 329 358
e 329 359
e 329 360
e 329 361
e 329 362
e 329 363
e 329 364
e 329 365
e 329 367
e 329 368
e 329 369
e 329 370
e 329 372
e 329 373
e 329 374
e 329 375
e 329 376
e 329 379
e 329 380
e 329 381
e 329 382
e 329 384
e 329 391
e 329 392
e 329 399
e 329 400
e 329 402
e 329 403
e 329 405
e 329 406
e 329 407
e 329 408
e 329 409
e 329 410
e 329 411
e 329 412
e 329 415
e 329 416
e 329 417
e 329 418
e 329 419
e 329 420
e 329 421
e 329 422
e 329 424
e 329 426
e 329 427
e 329 428
e 329 432
e 329 433
e 329 435
e 329 436
e 329 437
e 329 438
e 329 439
e 329 442
e 329 444
e 329 446
e 329 447
e 329 448
e 329 449
e 329 450
e 329 451
e 329 454
e 329 455
e 329 456
e 329 460
e 329 461
e 329 467
e 329 469
e 329 473
e 329 474
e 329 475
e 329 477
e 329 479
e 329 480
e 329 481
e 329 483
e 329 484
e 329 485
e 329 486
e 329 489
e 329 491
e 329 496
e 329 502
e 329 505
e 329 513
e 329 514
e 329 515
e 329 516
e 329 518
e 329 530
e 329 537
e 329 538
e 329 540
e 329 541
e 329 542
e 329 545
e 329 546
e 329 551
e 329 556
e 329 562
e 329 566
e 329 568
e 329 570
e 329 571
e 329 577
e 329 578
e 329 579
e 329 581
e 329 582
e 329 590
e 329 593
e 329 597
e 329 598
e 329 599
e 329 600
e 329 603
e 329 607
e 329 608
e 329 615
e 329 616
e 329 624
e 329 626
e 329 628
e 329 629
e 329 630
e 329 631
e 329 632
e 329 633
e 329 634
e 329 640
e 329 642
e 329 643
e 329 644
e 329 645
e 329 647
e 329 648
e 329 651
e 329 655
e 329 658
e 329 670
e 329 671
e 329 672
e 329 673
e 329 677
e 329 679
e 329 680
e 329 681
e 329 682
e 329 684
e 329 686
e 329 687
e 329 690
e 329 691
e 329 692
e 329 693
e 329 695
e 329 696
e 329 702
e 329 704
e 329 705
e 329 706
e 329 709
e 329 710
e 329 711
e 329 712
e 329 713
e 329 714
e 329 717
e 329 718
e 329 731
e 329 734
e 329 736
e 329 737
e 329 738
e 329 740
e 329 743
e 329 745
e 329 746
e 329 747
e 329 748
e 329 750
e 329 751
e 329 753
e 329 754
e 329 755
e 329 756
e 329 758
e 329 759
e 329 761
e 329 763
e 329 765
e 329 768
e 329 769
e 330 334
e 330 337
e 330 338
e 330 339
e 330 341
e 330 347
e 330 349
e 330 350
e 330 359
e 330 365
e 330 368
e 330 374
e 330 381
e 330 398
e 330 402
e 330 403
e 330 407
e 330 414
e 330 416
e 330 422
e 330 423
e 330 427
e 330 441
e 330 443
e 330 447
e 330 449
e 330 455
e 331 335
e 331 338
e 331 347
e 331 362
e 331 364
e 331 366
e 331 387
e 331 390
e 331 391
e 331 409
e 331 417
e 331 428
e 331 435
e 331 442
e 331 452
e 331 454
e 331 456
e 332 336
e 332 338
e 332 342
e 332 345
e 332 354
e 332 362
e 332 363
e 332 376
e 332 387
e 332 390
e 332 393
e 332 435
e 332 442
e 332 452
e 332 456
e 333 335
e 333 336
e 333 337
e 333 338
e 333 340
e 333 345
e 333 347
e 333 349
e 333 354
e 333 356
e 333 357
e 333 359
e 333 360
e 333 362
e 333 367
e 333 368
e 333 372
e 333 376
e 333 377
e 333 378
e 333 382
e 333 386
e 333 399
e 333 402
e 333 403
e 333 409
e 333 412
e 333 413
e 333 415
e 333 419
e 333 422
e 333 423
e 333 424
e 333 425
e 333 434
e 333 435
e 333 436
e 333 437
e 333 438
e 333 439
e 333 440
e 333 443
e 333 444
e 333 446
e 333 450
e 333 455
e 333 774
e 334 337
e 334 338
e 334 347
e 334 354
e 334 357
e 334 359
e 334 368
e 334 389
e 334 398
e 334 402
e 334 403
e 334 407
e 334 414
e 334 422
e 334 423
e 334 426
e 334 433
e 334 443
e 334 447
e 334 449
e 334 455
e 335 337
e 335 338
e 335 342
e 335 343
e 335 347
e 335 349
e 335 354
e 335 357
e 335 359
e 335 360
e 335 362
e 335 363
e 335 364
e 335 365
e 335 366
e 335 368
e 335 372
e 335 376
e 335 377
e 335 378
e 335 380
e 335 382
e 335 384
e 335 385
e 335 387
e 335 390
e 335 398
e 335 399
e 335 401
e 335 404
e 335 405
e 335 408
e 335 413
e 335 417
e 335 419
e 335 420
e 335 422
e 335 423
e 335 433
e 335 435
e 335 436
e 335 437
e 335 438
e 335 439
e 335 442
e 335 446
e 335 448
e 335 449
e 335 451
e 335 452
e 335 454
e 335 455
e 335 456
e 335 774
e 336 338
e 336 342
e 336 343
e 336 344
e 336 345
e 336 354
e 336 357
e 336 362
e 336 363
e 336 368
e 336 376
e 336 377
e 336 378
e 336 387
e 336 390
e 336 393
e 336 394
e 336 395
e 336 396
e 336 402
e 336 405
e 336 407
e 336 409
e 336 414
e 336 419
e 336 422
e 336 426
e 336 429
e 336 430
e 336 433
e 336 435
e 336 437
e 336 438
e 336 440
e 336 442
e 336 443
e 336 448
e 336 452
e 336 456
e 337 338
e 337 342
e 337 344
e 337 345
e 337 349
e 337 350
e 337 351
e 337 352
e 337 354
e 337 359
e 337 362
e 337 363
e 337 367
e 337 368
e 337 372
e 337 376
e 337 377
e 337 378
e 337 382
e 337 386
e 337 387
e 337 389
e 337 390
e 337 391
e 337 393
e 337 398
e 337 399
e 337 400
e 337 402
e 337 404
e 337 405
e 337 407
e 337 410
e 337 414
e 337 420
e 337 422
e 337 423
e 337 432
e 337 435
e 337 436
e 337 437
e 337 438
e 337 439
e 337 440
e 337 442
e 337 443
e 337 444
e 337 445
e 337 446
e 337 447
e 337 448
e 337 449
e 337 452
e 337 455
e 337 456
e 337 457
e 337 460
e 337 461
e 337 462
e 337 467
e 337 468
e 337 475
e 337 476
e 337 477
e 337 479
e 337 480
e 337 481
e 337 486
e 337 489
e 337 491
e 337 494
e 337 495
e 337 496
e 337 498
e 337 502
e 337 505
e 337 513
e 337 514
e 337 515
e 337 516
e 337 530
e 337 536
e 337 537
e 337 543
e 337 544
e 337 545
e 337 546
e 337 551
e 337 552
e 337 559
e 337 563
e 337 567
e 337 568
e 337 569
e 337 570
e 337 571
e 337 573
e 337 576
e 337 577
e 337 581
e 337 583
e 337 593
e 337 599
e 337 601
e 337 606
e 337 607
e 337 613
e 337 618
e 337 620
e 337 622
e 337 623
e 337 629
e 337 632
e 337 637
e 337 638
e 337 640
e 337 646
e 337 648
e 337 649
e 337 650
e 337 652
e 337 653
e 337 658
e 337 660
e 337 662
e 337 666
e 337 667
e 337 672
e 337 675
e 337 676
e 337 678
e 337 679
e 337 680
e 337 681
e 337 682
e 337 684
e 337 687
e 337 690
e 337 694
e 337 698
e 337 704
e 337 708
e 337 709
e 337 711
e 337 714
e 337 715
e 337 716
e 337 721
e 337 722
e 337 724
e 337 725
e 337 726
e 337 734
e 337 738
e 337 742
e 337 744
e 337 747
e 337 748
e 337 752
e 337 753
e 337 757
e 337 758
e 337 759
e 337 761
e 337 762
e 337 763
e 337 764
e 337 765
e 337 766
e 337 767
e 337 769
e 337 770
e 337 771
e 337 772
e 337 773
e 337 778
e 338 342
e 338 345
e 338 347
e 338 348
e 338 349
e 338 350
e 338 351
e 338 354
e 338 355
e 338 356
e 338 359
e 338 362
e 338 363
e 338 364
e 338 366
e 338 368
e 338 371
e 338 373
e 338 377
e 338 378
e 338 380
e 338 381
e 338 382
e 338 383
e 338 385
e 338 386
e 338 387
e 338 388
e 338 389
e 338 390
e 338 391
e 338 393
e 338 397
e 338 398
e 338 399
e 338 400
e 338 401
e 338 402
e 338 405
e 338 406
e 338 407
e 338 408
e 338 409
e 338 410
e 338 412
e 338 413
e 338 414
e 338 416
e 338 417
e 338 420
e 338 421
e 338 422
e 338 423
e 338 425
e 338 427
e 338 428
e 338 429
e 338 430
e 338 432
e 338 435
e 338 436
e 338 437
e 338 438
e 338 439
e 338 441
e 338 442
e 338 443
e 338 444
e 338 445
e 338 446
e 338 447
e 338 449
e 338 450
e 338 451
e 338 452
e 338 454
e 338 455
e 338 456
e 338 457
e 338 458
e 338 459
e 338 460
e 338 461
e 338 462
e 338 463
e 338 467
e 338 468
e 338 470
e 338 471
e 338 472
e 338 473
e 338 475
e 338 476
e 338 477
e 338 478
e 338 479
e 338 480
e 338 481
e 338 482
e 338 484
e 338 486
e 338 487
e 338 489
e 338 491
e 338 493
e 338 494
e 338 495
e 338 496
e 338 498
e 338 500
e 338 501
e 338 502
e 338 505
e 338 508
e 338 509
e 338 510
e 338 511
e 338 512
e 338 513
e 338 514
e 338 515
e 338 516
e 338 517
e 338 518
e 338 519
e 338 521
e 338 523
e 338 524
e 338 525
e 338 526
e 338 530
e 338 535
e 338 537
e 338 543
e 338 544
e 338 545
e 338 546
e 338 548
e 338 550
e 338 551
e 338 552
e 338 553
e 338 559
e 338 560
e 338 562
e 338 563
e 338 568
e 338 570
e 338 571
e 338 572
e 338 574
e 338 575
e 338 577
e 338 578
e 338 579
e 338 580
e 338 581
e 338 582
e 338 583
e 338 584
e 338 585
e 338 591
e 338 593
e 338 599
e 338 604
e 338 606
e 338 607
e 338 609
e 338 610
e 338 611
e 338 613
e 338 614
e 338 615
e 338 616
e 338 617
e 338 618
e 338 619
e 338 620
e 338 621
e 338 622
e 338 623
e 338 624
e 338 626
e 338 627
e 338 629
e 338 633
e 338 636
e 338 637
e 338 638
e 338 640
e 338 644
e 338 645
e 338 646
e 338 647
e 338 648
e 338 651
e 338 653
e 338 656
e 338 657
e 338 658
e 338 659
e 338 660
e 338 661
e 338 662
e 338 663
e 338 664
e 338 666
e 338 668
e 338 669
e 338 671
e 338 672
e 338 675
e 338 676
e 338 678
e 338 679
e 338 680
e 338 681
e 338 682
e 338 683
e 338 684
e 338 685
e 338 687
e 338 688
e 338 689
e 338 690
e 338 691
e 338 692
e 338 694
e 338 695
e 338 696
e 338 697
e 338 698
e 338 699
e 338 700
e 338 701
e 338 702
e 338 703
e 338 704
e 338 706
e 338 707
e 338 708
e 338 709
e 338 710
e 338 712
e 338 713
e 338 714
e 338 715
e 338 716
e 338 717
e 338 718
e 338 719
e 338 720
e 338 721
e 338 722
e 338 723
e 338 724
e 338 725
e 338 726
e 338 727
e 338 728
e 338 729
e 338 730
e 338 731
e 338 732
e 338 733
e 338 734
e 338 735
e 338 737
e 338 738
e 338 739
e 338 740
e 338 741
e 338 742
e 338 743
e 338 744
e 338 745
e 338 746
e 338 747
e 338 749
e 338 752
e 338 753
e 338 754
e 338 755
e 338 756
e 338 757
e 338 759
e 338 760
e 338 761
e 338 762
e 338 763
e 338 764
e 338 766
e 338 767
e 338 768
e 338 769
e 338 770
e 338 771
e 338 772
e 338 773
e 338 774
e 338 775
e 338 776
e 338 777
e 338 778
e 339 340
e 339 341
e 339 349
e 339 350
e 339 357
e 339 365
e 339 368
e 339 374
e 339 381
e 339 403
e 339 405
e 339 407
e 339 414
e 339 416
e 339 427
e 339 447
e 340 347
e 340 356
e 340 357
e 340 362
e 340 368
e 340 370
e 340 375
e 340 379
e 340 380
e 340 399
e 340 405
e 340 413
e 340 414
e 340 416
e 340 424
e 340 427
e 340 434
e 340 437
e 340 438
e 340 441
e 340 774
e 341 349
e 341 350
e 341 355
e 341 357
e 341 361
e 341 362
e 341 369
e 341 373
e 341 375
e 341 379
e 341 381
e 341 382
e 341 384
e 341 388
e 341 407
e 341 444
e 342 344
e 342 345
e 342 347
e 342 354
e 342 355
e 342 356
e 342 362
e 342 363
e 342 364
e 342 373
e 342 376
e 342 377
e 342 380
e 342 381
e 342 382
e 342 383
e 342 387
e 342 390
e 342 393
e 342 399
e 342 410
e 342 412
e 342 417
e 342 422
e 342 432
e 342 435
e 342 436
e 342 437
e 342 438
e 342 442
e 342 446
e 342 452
e 342 454
e 342 456
e 342 457
e 342 461
e 342 467
e 342 476
e 342 479
e 342 480
e 342 481
e 342 485
e 342 486
e 342 498
e 342 502
e 342 505
e 342 513
e 342 514
e 342 516
e 342 530
e 342 537
e 342 545
e 342 551
e 342 554
e 342 555
e 342 562
e 342 570
e 342 571
e 342 577
e 342 578
e 342 593
e 342 597
e 342 598
e 342 599
e 342 600
e 342 607
e 342 623
e 342 626
e 342 644
e 342 655
e 342 659
e 342 667
e 342 681
e 342 682
e 342 690
e 342 693
e 342 696
e 342 711
e 342 714
e 342 715
e 342 716
e 342 721
e 342 734
e 342 735
e 342 737
e 342 748
e 342 751
e 342 754
e 342 758
e 342 759
e 342 760
e 342 763
e 342 764
e 342 765
e 342 768
e 342 769
e 342 773
e 342 777
e 342 778
e 343 354
e 343 357
e 343 368
e 343 372
e 343 376
e 343 402
e 343 405
e 343 409
e 343 414
e 343 426
e 343 433
e 343 435
e 343 436
e 343 440
e 343 443
e 343 446
e 343 448
e 344 345
e 344 351
e 344 352
e 344 363
e 344 376
e 344 377
e 344 387
e 344 390
e 344 393
e 344 402
e 344 404
e 344 435
e 344 442
e 344 452
e 345 349
e 345 350
e 345 351
e 345 352
e 345 354
e 345 362
e 345 363
e 345 368
e 345 371
e 345 373
e 345 376
e 345 378
e 345 382
e 345 387
e 345 388
e 345 391
e 345 393
e 345 394
e 345 395
e 345 396
e 345 399
e 345 402
e 345 404
e 345 405
e 345 407
e 345 409
e 345 410
e 345 413
e 345 415
e 345 422
e 345 425
e 345 428
e 345 429
e 345 430
e 345 432
e 345 434
e 345 435
e 345 437
e 345 438
e 345 439
e 345 441
e 345 442
e 345 444
e 345 445
e 345 446
e 345 448
e 345 453
e 345 460
e 345 462
e 345 467
e 345 468
e 345 471
e 345 473
e 345 475
e 345 476
e 345 477
e 345 480
e 345 481
e 345 484
e 345 485
e 345 486
e 345 489
e 345 491
e 345 493
e 345 494
e 345 495
e 345 498
e 345 501
e 345 502
e 345 505
e 345 509
e 345 510
e 345 511
e 345 512
e 345 513
e 345 514
e 345 515
e 345 516
e 345 530
e 345 531
e 345 532
e 345 533
e 345 534
e 345 536
e 345 537
e 345 544
e 345 545
e 345 546
e 345 551
e 345 552
e 345 554
e 345 555
e 345 559
e 345 562
e 345 563
e 345 568
e 345 570
e 345 571
e 345 572
e 345 574
e 345 575
e 345 577
e 345 578
e 345 580
e 345 581
e 345 582
e 345 583
e 345 584
e 345 599
e 345 601
e 345 602
e 345 606
e 345 607
e 345 611
e 345 613
e 345 615
e 345 616
e 345 617
e 345 621
e 345 622
e 345 623
e 345 626
e 345 632
e 345 633
e 345 637
e 345 639
e 345 642
e 345 644
e 345 646
e 345 648
e 345 649
e 345 650
e 345 651
e 345 657
e 345 658
e 345 662
e 345 663
e 345 665
e 345 666
e 345 667
e 345 675
e 345 676
e 345 679
e 345 681
e 345 682
e 345 684
e 345 689
e 345 694
e 345 696
e 345 698
e 345 701
e 345 703
e 345 704
e 345 705
e 345 707
e 345 709
e 345 711
e 345 714
e 345 715
e 345 716
e 345 718
e 345 719
e 345 722
e 345 723
e 345 726
e 345 727
e 345 728
e 345 729
e 345 731
e 345 732
e 345 734
e 345 737
e 345 738
e 345 740
e 345 741
e 345 742
e 345 743
e 345 748
e 345 749
e 345 751
e 345 752
e 345 753
e 345 754
e 345 757
e 345 758
e 345 759
e 345 760
e 345 761
e 345 762
e 345 763
e 345 764
e 345 765
e 345 767
e 345 768
e 345 769
e 345 770
e 345 771
e 345 773
e 345 774
e 345 775
e 345 777
e 346 347
e 346 354
e 346 373
e 346 382
e 346 385
e 346 391
e 346 402
e 346 408
e 346 409
e 346 413
e 346 415
e 346 424
e 346 425
e 346 428
e 346 446
e 347 350
e 347 353
e 347 354
e 347 355
e 347 356
e 347 357
e 347 359
e 347 360
e 347 361
e 347 362
e 347 363
e 347 364
e 347 365
e 347 366
e 347 368
e 347 370
e 347 372
e 347 373
e 347 374
e 347 375
e 347 376
e 347 377
e 347 379
e 347 380
e 347 381
e 347 382
e 347 383
e 347 384
e 347 389
e 347 391
e 347 392
e 347 398
e 347 399
e 347 401
e 347 402
e 347 403
e 347 405
e 347 406
e 347 407
e 347 408
e 347 409
e 347 412
e 347 413
e 347 414
e 347 415
e 347 416
e 347 417
e 347 418
e 347 419
e 347 423
e 347 424
e 347 425
e 347 426
e 347 427
e 347 428
e 347 433
e 347 434
e 347 435
e 347 436
e 347 437
e 347 438
e 347 439
e 347 440
e 347 441
e 347 442
e 347 443
e 347 444
e 347 445
e 347 446
e 347 449
e 347 450
e 347 451
e 347 774
e 348 354
e 348 362
e 348 366
e 348 368
e 348 371
e 348 378
e 348 397
e 348 410
e 348 423
e 348 428
e 348 447
e 348 450
e 348 456
e 349 350
e 349 356
e 349 361
e 349 362
e 349 367
e 349 368
e 349 370
e 349 376
e 349 377
e 349 380
e 349 381
e 349 382
e 349 383
e 349 384
e 349 386
e 349 399
e 349 401
e 349 404
e 349 405
e 349 407
e 349 411
e 349 417
e 349 419
e 349 421
e 349 422
e 349 423
e 349 427
e 349 432
e 349 435
e 349 436
e 349 437
e 349 438
e 349 439
e 349 441
e 349 442
e 349 445
e 349 446
e 349 451
e 349 455
e 349 460
e 349 461
e 349 467
e 349 473
e 349 476
e 349 496
e 349 498
e 349 502
e 349 505
e 349 513
e 349 514
e 349 515
e 349 516
e 349 530
e 349 535
e 349 551
e 349 581
e 349 599
e 349 602
e 349 612
e 349 615
e 349 616
e 349 622
e 349 626
e 349 632
e 349 633
e 349 640
e 349 654
e 349 658
e 349 659
e 349 671
e 349 681
e 349 682
e 349 684
e 349 690
e 349 696
e 349 704
e 349 705
e 349 713
e 349 714
e 349 715
e 349 717
e 349 718
e 349 740
e 349 741
e 349 745
e 349 748
e 349 751
e 349 752
e 349 753
e 349 754
e 349 755
e 349 756
e 349 760
e 349 777
e 350 352
e 350 354
e 350 355
e 350 356
e 350 362
e 350 365
e 350 369
e 350 371
e 350 373
e 350 374
e 350 375
e 350 377
e 350 379
e 350 381
e 350 382
e 350 383
e 350 391
e 350 399
e 350 401
e 350 402
e 350 403
e 350 407
e 350 412
e 350 416
e 350 427
e 350 428
e 350 432
e 350 435
e 350 436
e 350 438
e 350 444
e 350 447
e 350 449
e 350 455
e 350 457
e 350 460
e 350 462
e 350 467
e 350 471
e 350 475
e 350 476
e 350 477
e 350 478
e 350 479
e 350 480
e 350 484
e 350 491
e 350 496
e 350 497
e 350 498
e 350 499
e 350 502
e 350 505
e 350 509
e 350 510
e 350 511
e 350 512
e 350 513
e 350 514
e 350 515
e 350 516
e 350 520
e 350 521
e 350 527
e 350 530
e 350 535
e 350 537
e 350 539
e 350 540
e 350 541
e 350 542
e 350 545
e 350 546
e 350 551
e 350 563
e 350 568
e 350 571
e 350 577
e 350 578
e 350 581
e 350 582
e 350 583
e 350 585
e 350 587
e 350 588
e 350 590
e 350 593
e 350 599
e 350 603
e 350 604
e 350 607
e 350 610
e 350 612
e 350 615
e 350 617
e 350 618
e 350 619
e 350 620
e 350 621
e 350 622
e 350 623
e 350 625
e 350 626
e 350 628
e 350 630
e 350 631
e 350 633
e 350 634
e 350 635
e 350 636
e 350 638
e 350 639
e 350 640
e 350 641
e 350 642
e 350 643
e 350 644
e 350 646
e 350 647
e 350 648
e 350 651
e 350 654
e 350 658
e 350 659
e 350 662
e 350 663
e 350 670
e 350 671
e 350 673
e 350 674
e 350 678
e 350 681
e 350 682
e 350 684
e 350 686
e 350 688
e 350 690
e 350 691
e 350 693
e 350 696
e 350 705
e 350 707
e 350 708
e 350 710
e 350 713
e 350 716
e 350 717
e 350 718
e 350 720
e 350 724
e 350 731
e 350 732
e 350 733
e 350 734
e 350 736
e 350 738
e 350 739
e 350 741
e 350 742
e 350 744
e 350 745
e 350 747
e 350 748
e 350 750
e 350 751
e 350 752
e 350 753
e 350 754
e 350 755
e 350 756
e 350 760
e 350 761
e 350 762
e 350 765
e 350 766
e 350 769
e 350 770
e 350 772
e 350 773
e 350 775
e 350 776
e 350 777
e 350 778
e 351 352
e 351 362
e 351 369
e 351 376
e 351 382
e 351 388
e 351 393
e 351 402
e 351 405
e 351 407
e 351 418
e 351 429
e 351 430
e 351 434
e 351 437
e 351 438
e 351 439
e 351 441
e 351 445
e 351 774
e 352 362
e 352 368
e 352 371
e 352 376
e 352 391
e 352 393
e 352 402
e 352 404
e 352 405
e 352 422
e 352 428
e 352 436
e 352 438
e 352 444
e 352 445
e 352 455
e 352 460
e 352 467
e 352 471
e 352 479
e 352 496
e 352 497
e 352 498
e 352 499
e 352 513
e 352 514
e 352 520
e 352 527
e 352 530
e 352 556
e 352 561
e 352 583
e 352 587
e 352 590
e 352 620
e 352 621
e 352 625
e 352 626
e 352 628
e 352 629
e 352 630
e 352 631
e 352 634
e 352 638
e 352 646
e 352 647
e 352 648
e 352 651
e 352 663
e 352 673
e 352 678
e 352 681
e 352 684
e 352 686
e 352 691
e 352 696
e 352 707
e 352 731
e 352 734
e 352 745
e 352 747
e 352 750
e 352 761
e 352 765
e 352 769
e 352 777
e 353 361
e 353 362
e 353 365
e 353 383
e 353 384
e 353 418
e 353 440
e 354 357
e 354 362
e 354 363
e 354 364
e 354 366
e 354 368
e 354 371
e 354 373
e 354 376
e 354 377
e 354 378
e 354 379
e 354 381
e 354 382
e 354 383
e 354 385
e 354 387
e 354 389
e 354 390
e 354 391
e 354 393
e 354 397
e 354 398
e 354 399
e 354 400
e 354 402
e 354 403
e 354 404
e 354 405
e 354 407
e 354 408
e 354 409
e 354 410
e 354 411
e 354 413
e 354 414
e 354 415
e 354 417
e 354 419
e 354 420
e 354 421
e 354 422
e 354 423
e 354 426
e 354 427
e 354 428
e 354 432
e 354 433
e 354 435
e 354 436
e 354 437
e 354 438
e 354 440
e 354 442
e 354 443
e 354 446
e 354 447
e 354 448
e 354 449
e 354 450
e 354 452
e 354 454
e 354 455
e 354 456
e 354 457
e 354 461
e 354 464
e 354 465
e 354 466
e 354 467
e 354 468
e 354 471
e 354 472
e 354 473
e 354 475
e 354 476
e 354 477
e 354 478
e 354 479
e 354 480
e 354 481
e 354 482
e 354 484
e 354 485
e 354 486
e 354 489
e 354 491
e 354 493
e 354 496
e 354 502
e 354 503
e 354 504
e 354 505
e 354 506
e 354 513
e 354 514
e 354 515
e 354 516
e 354 517
e 354 518
e 354 519
e 354 530
e 354 537
e 354 543
e 354 544
e 354 545
e 354 546
e 354 548
e 354 551
e 354 552
e 354 553
e 354 554
e 354 555
e 354 559
e 354 565
e 354 567
e 354 568
e 354 569
e 354 570
e 354 571
e 354 573
e 354 576
e 354 577
e 354 579
e 354 581
e 354 588
e 354 589
e 354 591
e 354 593
e 354 599
e 354 604
e 354 607
e 354 613
e 354 618
e 354 620
e 354 621
e 354 623
e 354 626
e 354 629
e 354 632
e 354 635
e 354 637
e 354 638
e 354 640
e 354 644
e 354 646
e 354 648
e 354 649
e 354 655
e 354 657
e 354 658
e 354 660
e 354 662
e 354 665
e 354 666
e 354 667
e 354 669
e 354 674
e 354 675
e 354 678
e 354 679
e 354 680
e 354 681
e 354 682
e 354 683
e 354 684
e 354 685
e 354 689
e 354 690
e 354 693
e 354 694
e 354 696
e 354 697
e 354 707
e 354 708
e 354 709
e 354 710
e 354 711
e 354 714
e 354 715
e 354 716
e 354 718
e 354 719
e 354 721
e 354 722
e 354 724
e 354 725
e 354 726
e 354 730
e 354 734
e 354 736
e 354 738
e 354 739
e 354 742
e 354 744
e 354 746
e 354 747
e 354 748
e 354 750
e 354 753
e 354 754
e 354 755
e 354 756
e 354 759
e 354 761
e 354 762
e 354 765
e 354 766
e 354 767
e 354 768
e 354 769
e 354 771
e 354 772
e 354 775
e 354 776
e 354 778
e 355 357
e 355 361
e 355 362
e 355 363
e 355 369
e 355 373
e 355 375
e 355 377
e 355 379
e 355 380
e 355 381
e 355 382
e 355 384
e 355 388
e 355 401
e 355 404
e 355 412
e 355 417
e 355 446
e 356 357
e 356 362
e 356 370
e 356 375
e 356 379
e 356 380
e 356 382
e 356 399
e 356 402
e 356 406
e 356 410
e 356 413
e 356 416
e 356 424
e 356 425
e 356 427
e 356 432
e 356 434
e 356 436
e 356 437
e 356 438
e 356 441
e 356 458
e 356 459
e 356 460
e 356 461
e 356 462
e 356 467
e 356 476
e 356 477
e 356 484
e 356 486
e 356 487
e 356 496
e 356 498
e 356 502
e 356 505
e 356 513
e 356 514
e 356 515
e 356 516
e 356 523
e 356 524
e 356 526
e 356 530
e 356 535
e 356 537
e 356 539
e 356 551
e 356 562
e 356 570
e 356 571
e 356 577
e 356 581
e 356 583
e 356 597
e 356 598
e 356 599
e 356 600
e 356 607
e 356 612
e 356 614
e 356 620
e 356 622
e 356 623
e 356 626
e 356 633
e 356 639
e 356 640
e 356 641
e 356 642
e 356 644
e 356 647
e 356 654
e 356 655
e 356 658
e 356 659
e 356 670
e 356 671
e 356 681
e 356 682
e 356 684
e 356 686
e 356 690
e 356 691
e 356 693
e 356 696
e 356 707
e 356 713
e 356 714
e 356 717
e 356 718
e 356 731
e 356 734
e 356 737
e 356 741
e 356 745
e 356 749
e 356 751
e 356 752
e 356 754
e 356 756
e 356 760
e 356 765
e 356 768
e 356 774
e 356 777
e 357 359
e 357 360
e 357 361
e 357 362
e 357 368
e 357 369
e 357 373
e 357 376
e 357 384
e 357 388
e 357 389
e 357 392
e 357 398
e 357 402
e 357 403
e 357 405
e 357 406
e 357 407
e 357 409
e 357 412
e 357 414
e 357 416
e 357 417
e 357 418
e 357 419
e 357 423
e 357 426
e 357 427
e 357 433
e 357 435
e 357 436
e 357 440
e 357 442
e 357 443
e 357 448
e 357 451
e 357 774
e 358 362
e 358 373
e 358 391
e 358 399
e 358 428
e 358 438
e 358 455
e 358 474
e 358 475
e 358 479
e 358 480
e 358 481
e 358 483
e 358 485
e 358 513
e 358 515
e 358 516
e 358 645
e 358 648
e 358 695
e 358 696
e 358 743
e 359 360
e 359 362
e 359 368
e 359 376
e 359 377
e 359 398
e 359 407
e 359 412
e 359 414
e 359 419
e 359 422
e 359 423
e 359 435
e 359 436
e 359 438
e 359 443
e 359 447
e 359 449
e 359 455
e 360 362
e 360 374
e 360 376
e 360 377
e 360 403
e 360 412
e 360 419
e 360 420
e 360 422
e 360 424
e 360 433
e 360 435
e 360 436
e 360 437
e 360 438
e 360 450
e 360 454
e 361 362
e 361 365
e 361 367
e 361 369
e 361 370
e 361 373
e 361 380
e 361 382
e 361 383
e 361 384
e 361 388
e 361 417
e 361 419
e 361 437
e 361 440
e 361 446
e 362 363
e 362 364
e 362 365
e 362 366
e 362 367
e 362 368
e 362 369
e 362 370
e 362 371
e 362 372
e 362 373
e 362 374
e 362 375
e 362 376
e 362 377
e 362 378
e 362 379
e 362 380
e 362 382
e 362 383
e 362 384
e 362 386
e 362 387
e 362 388
e 362 389
e 362 390
e 362 391
e 362 393
e 362 397
e 362 399
e 362 402
e 362 403
e 362 404
e 362 405
e 362 409
e 362 410
e 362 412
e 362 413
e 362 415
e 362 416
e 362 417
e 362 418
e 362 419
e 362 420
e 362 422
e 362 423
e 362 424
e 362 425
e 362 428
e 362 433
e 362 434
e 362 435
e 362 436
e 362 437
e 362 438
e 362 439
e 362 440
e 362 441
e 362 442
e 362 443
e 362 444
e 362 445
e 362 446
e 362 449
e 362 450
e 362 452
e 362 454
e 362 455
e 362 456
e 362 461
e 362 474
e 362 475
e 362 477
e 362 478
e 362 479
e 362 480
e 362 481
e 362 483
e 362 484
e 362 485
e 362 491
e 362 502
e 362 508
e 362 513
e 362 515
e 362 516
e 362 521
e 362 523
e 362 525
e 362 526
e 362 537
e 362 545
e 362 551
e 362 568
e 362 571
e 362 578
e 362 582
e 362 583
e 362 584
e 362 585
e 362 599
e 362 610
e 362 618
e 362 619
e 362 623
e 362 636
e 362 640
e 362 645
e 362 648
e 362 651
e 362 660
e 362 662
e 362 663
e 362 669
e 362 678
e 362 681
e 362 682
e 362 690
e 362 695
e 362 696
e 362 700
e 362 707
e 362 720
e 362 725
e 362 731
e 362 732
e 362 734
e 362 739
e 362 743
e 362 749
e 362 756
e 362 761
e 362 771
e 362 772
e 362 774
e 362 776
e 363 364
e 363 373
e 363 376
e 363 377
e 363 380
e 363 382
e 363 387
e 363 390
e 363 393
e 363 412
e 363 417
e 363 435
e 363 437
e 363 442
e 363 446
e 363 452
e 363 454
e 363 456
e 364 366
e 364 373
e 364 380
e 364 381
e 364 382
e 364 384
e 364 387
e 364 390
e 364 391
e 364 399
e 364 405
e 364 409
e 364 417
e 364 419
e 364 427
e 364 428
e 364 432
e 364 435
e 364 437
e 364 438
e 364 439
e 364 442
e 364 446
e 364 448
e 364 452
e 364 454
e 364 455
e 364 456
e 364 461
e 364 467
e 364 469
e 364 470
e 364 471
e 364 472
e 364 473
e 364 476
e 364 477
e 364 478
e 364 480
e 364 482
e 364 484
e 364 485
e 364 486
e 364 488
e 364 489
e 364 502
e 364 503
e 364 504
e 364 505
e 364 506
e 364 513
e 364 514
e 364 515
e 364 516
e 364 518
e 364 530
e 364 545
e 364 546
e 364 547
e 364 548
e 364 551
e 364 552
e 364 558
e 364 564
e 364 565
e 364 568
e 364 570
e 364 571
e 364 579
e 364 581
e 364 593
e 364 594
e 364 596
e 364 599
e 364 621
e 364 626
e 364 627
e 364 646
e 364 648
e 364 649
e 364 652
e 364 656
e 364 658
e 364 665
e 364 680
e 364 681
e 364 682
e 364 684
e 364 696
e 364 702
e 364 709
e 364 713
e 364 714
e 364 715
e 364 717
e 364 718
e 364 731
e 364 740
e 364 746
e 364 761
e 365 370
e 365 372
e 365 374
e 365 380
e 365 383
e 365 384
e 365 398
e 365 401
e 365 402
e 365 403
e 365 405
e 365 407
e 365 413
e 365 416
e 365 418
e 365 427
e 365 433
e 365 434
e 365 437
e 365 438
e 365 440
e 365 441
e 365 442
e 365 444
e 365 445
e 365 447
e 365 451
e 365 454
e 365 774
e 366 368
e 366 371
e 366 378
e 366 385
e 366 390
e 366 391
e 366 397
e 366 408
e 366 409
e 366 410
e 366 413
e 366 417
e 366 423
e 366 428
e 366 435
e 366 438
e 366 442
e 366 452
e 366 454
e 366 456
e 367 368
e 367 370
e 367 372
e 367 377
e 367 378
e 367 380
e 367 382
e 367 386
e 367 417
e 367 419
e 367 422
e 367 423
e 367 436
e 367 437
e 367 438
e 367 440
e 367 446
e 367 449
e 367 455
e 368 371
e 368 372
e 368 376
e 368 377
e 368 378
e 368 383
e 368 384
e 368 385
e 368 386
e 368 389
e 368 391
e 368 397
e 368 398
e 368 399
e 368 401
e 368 402
e 368 404
e 368 405
e 368 406
e 368 407
e 368 408
e 368 409
e 368 410
e 368 412
e 368 413
e 368 414
e 368 417
e 368 418
e 368 419
e 368 420
e 368 422
e 368 423
e 368 426
e 368 427
e 368 428
e 368 433
e 368 435
e 368 436
e 368 437
e 368 438
e 368 439
e 368 440
e 368 441
e 368 442
e 368 443
e 368 444
e 368 445
e 368 446
e 368 447
e 368 448
e 368 449
e 368 450
e 368 451
e 368 452
e 368 454
e 368 455
e 368 456
e 369 373
e 369 375
e 369 379
e 369 381
e 369 382
e 369 384
e 369 388
e 369 405
e 369 418
e 369 434
e 369 438
e 369 441
e 369 444
e 369 445
e 369 774
e 370 375
e 370 379
e 370 380
e 370 382
e 370 402
e 370 404
e 370 413
e 370 416
e 370 417
e 370 419
e 370 434
e 370 437
e 370 438
e 370 441
e 370 442
e 370 446
e 370 774
e 371 378
e 371 382
e 371 383
e 371 391
e 371 397
e 371 399
e 371 402
e 371 410
e 371 423
e 371 428
e 371 432
e 371 435
e 371 436
e 371 438
e 371 447
e 371 449
e 371 450
e 371 452
e 371 455
e 371 456
e 371 457
e 371 467
e 371 471
e 371 475
e 371 478
e 371 479
e 371 480
e 371 481
e 371 484
e 371 489
e 371 491
e 371 493
e 371 498
e 371 501
e 371 502
e 371 505
e 371 513
e 371 514
e 371 515
e 371 516
e 371 517
e 371 518
e 371 519
e 371 520
e 371 521
e 371 527
e 371 537
e 371 545
e 371 546
e 371 551
e 371 557
e 371 560
e 371 563
e 371 568
e 371 570
e 371 571
e 371 578
e 371 579
e 371 580
e 371 581
e 371 582
e 371 583
e 371 584
e 371 587
e 371 590
e 371 591
e 371 599
e 371 605
e 371 607
e 371 610
e 371 617
e 371 618
e 371 619
e 371 620
e 371 621
e 371 623
e 371 625
e 371 626
e 371 636
e 371 640
e 371 645
e 371 646
e 371 648
e 371 651
e 371 660
e 371 662
e 371 663
e 371 666
e 371 669
e 371 675
e 371 678
e 371 681
e 371 682
e 371 684
e 371 685
e 371 688
e 371 690
e 371 691
e 371 696
e 371 697
e 371 707
e 371 709
e 371 710
e 371 716
e 371 722
e 371 725
e 371 730
e 371 731
e 371 732
e 371 739
e 371 741
e 371 744
e 371 746
e 371 754
e 371 759
e 371 761
e 371 765
e 371 766
e 371 769
e 371 771
e 371 772
e 371 776
e 371 777
e 372 376
e 372 377
e 372 378
e 372 383
e 372 386
e 372 402
e 372 405
e 372 418
e 372 422
e 372 423
e 372 434
e 372 436
e 372 437
e 372 438
e 372 440
e 372 441
e 372 444
e 372 445
e 372 446
e 372 448
e 372 449
e 372 455
e 372 774
e 373 375
e 373 377
e 373 379
e 373 380
e 373 381
e 373 382
e 373 383
e 373 384
e 373 388
e 373 391
e 373 399
e 373 401
e 373 404
e 373 408
e 373 409
e 373 410
e 373 412
e 373 415
e 373 417
e 373 421
e 373 422
e 373 427
e 373 428
e 373 432
e 373 438
e 373 446
e 373 448
e 373 455
e 373 456
e 373 461
e 373 467
e 373 469
e 373 470
e 373 473
e 373 474
e 373 475
e 373 477
e 373 479
e 373 480
e 373 481
e 373 483
e 373 485
e 373 486
e 373 489
e 373 491
e 373 496
e 373 502
e 373 503
e 373 504
e 373 505
e 373 506
e 373 513
e 373 514
e 373 515
e 373 516
e 373 518
e 373 530
e 373 545
e 373 546
e 373 549
e 373 551
e 373 552
e 373 553
e 373 562
e 373 565
e 373 568
e 373 570
e 373 571
e 373 577
e 373 581
e 373 589
e 373 594
e 373 596
e 373 599
e 373 604
e 373 607
e 373 611
e 373 615
e 373 622
e 373 623
e 373 624
e 373 626
e 373 627
e 373 644
e 373 645
e 373 646
e 373 648
e 373 649
e 373 651
e 373 652
e 373 657
e 373 658
e 373 660
e 373 662
e 373 664
e 373 665
e 373 666
e 373 669
e 373 674
e 373 675
e 373 678
e 373 680
e 373 681
e 373 682
e 373 683
e 373 684
e 373 685
e 373 689
e 373 692
e 373 693
e 373 694
e 373 695
e 373 696
e 373 702
e 373 703
e 373 706
e 373 707
e 373 708
e 373 709
e 373 712
e 373 713
e 373 714
e 373 715
e 373 716
e 373 717
e 373 718
e 373 719
e 373 722
e 373 723
e 373 725
e 373 726
e 373 727
e 373 728
e 373 729
e 373 733
e 373 734
e 373 737
e 373 738
e 373 740
e 373 742
e 373 743
e 373 746
e 373 750
e 373 754
e 373 755
e 373 756
e 373 757
e 373 759
e 373 761
e 373 762
e 373 767
e 373 768
e 373 771
e 373 772
e 373 775
e 373 776
e 374 377
e 374 378
e 374 382
e 374 383
e 374 392
e 374 402
e 374 403
e 374 406
e 374 407
e 374 416
e 374 420
e 374 422
e 374 424
e 374 426
e 374 427
e 374 433
e 374 437
e 374 442
e 374 444
e 374 445
e 374 447
e 374 449
e 374 450
e 374 451
e 374 454
e 374 774
e 375 377
e 375 379
e 375 380
e 375 381
e 375 382
e 375 401
e 375 402
e 375 404
e 375 412
e 375 413
e 375 416
e 375 417
e 375 425
e 375 438
e 375 441
e 375 444
e 376 377
e 376 384
e 376 387
e 376 390
e 376 393
e 376 399
e 376 402
e 376 404
e 376 405
e 376 412
e 376 413
e 376 415
e 376 417
e 376 418
e 376 419
e 376 422
e 376 425
e 376 427
e 376 435
e 376 436
e 376 437
e 376 438
e 376 439
e 376 442
e 376 444
e 376 445
e 376 446
e 376 448
e 376 451
e 376 452
e 377 378
e 377 379
e 377 381
e 377 382
e 377 383
e 377 387
e 377 390
e 377 393
e 377 399
e 377 401
e 377 402
e 377 405
e 377 406
e 377 409
e 377 412
e 377 422
e 377 435
e 377 436
e 377 437
e 377 438
e 377 440
e 377 442
e 377 443
e 377 444
e 377 445
e 377 446
e 377 447
e 377 449
e 377 450
e 377 451
e 377 452
e 378 382
e 378 383
e 378 394
e 378 395
e 378 396
e 378 397
e 378 401
e 378 402
e 378 405
e 378 406
e 378 407
e 378 408
e 378 409
e 378 410
e 378 413
e 378 420
e 378 422
e 378 423
e 378 428
e 378 429
e 378 430
e 378 433
e 378 435
e 378 437
e 378 438
e 378 440
e 378 442
e 378 443
e 378 444
e 378 445
e 378 446
e 378 447
e 378 448
e 378 449
e 378 450
e 378 451
e 378 454
e 378 455
e 378 456
e 379 380
e 379 381
e 379 382
e 379 401
e 379 404
e 379 412
e 379 413
e 379 416
e 379 417
e 379 438
e 379 441
e 379 444
e 380 382
e 380 384
e 380 402
e 380 412
e 380 413
e 380 416
e 380 417
e 380 419
e 380 434
e 380 435
e 380 437
e 380 438
e 380 439
e 380 441
e 380 442
e 380 446
e 380 774
e 381 382
e 381 383
e 381 399
e 381 400
e 381 401
e 381 404
e 381 405
e 381 407
e 381 410
e 381 411
e 381 412
e 381 417
e 381 421
e 381 423
e 381 427
e 381 431
e 381 432
e 381 435
e 381 436
e 381 438
e 381 444
e 381 446
e 381 448
e 381 455
e 381 461
e 381 464
e 381 465
e 381 466
e 381 468
e 381 469
e 381 470
e 381 473
e 381 475
e 381 476
e 381 477
e 381 478
e 381 479
e 381 484
e 381 485
e 381 486
e 381 489
e 381 490
e 381 491
e 381 492
e 381 496
e 381 498
e 381 500
e 381 502
e 381 503
e 381 504
e 381 505
e 381 506
e 381 513
e 381 514
e 381 515
e 381 516
e 381 519
e 381 528
e 381 529
e 381 530
e 381 537
e 381 545
e 381 551
e 381 552
e 381 562
e 381 565
e 381 566
e 381 568
e 381 570
e 381 571
e 381 578
e 381 580
e 381 581
e 381 582
e 381 592
e 381 593
e 381 595
e 381 596
e 381 599
e 381 608
e 381 609
e 381 614
e 381 615
e 381 616
e 381 624
e 381 626
e 381 627
e 381 632
e 381 633
e 381 636
e 381 642
e 381 646
e 381 647
e 381 648
e 381 651
e 381 659
e 381 661
e 381 664
e 381 665
e 381 666
e 381 668
e 381 670
e 381 672
e 381 675
e 381 677
e 381 679
e 381 680
e 381 681
e 381 682
e 381 684
e 381 687
e 381 690
e 381 692
e 381 695
e 381 696
e 381 699
e 381 700
e 381 702
e 381 704
e 381 705
e 381 706
e 381 712
e 381 713
e 381 714
e 381 715
e 381 720
e 381 731
e 381 733
e 381 734
e 381 735
e 381 738
e 381 740
e 381 741
e 381 743
e 381 746
e 381 749
e 381 751
e 381 753
e 381 754
e 381 755
e 381 756
e 381 758
e 381 760
e 381 763
e 381 764
e 381 773
e 381 777
e 382 383
e 382 384
e 382 388
e 382 391
e 382 399
e 382 400
e 382 402
e 382 404
e 382 406
e 382 407
e 382 411
e 382 412
e 382 413
e 382 415
e 382 417
e 382 419
e 382 421
e 382 423
e 382 424
e 382 425
e 382 427
e 382 428
e 382 429
e 382 430
e 382 432
e 382 435
e 382 436
e 382 437
e 382 438
e 382 439
e 382 441
e 382 442
e 382 444
e 382 445
e 382 446
e 382 447
e 382 448
e 382 449
e 382 450
e 382 453
e 382 455
e 382 456
e 382 460
e 382 461
e 382 467
e 382 469
e 382 470
e 382 471
e 382 473
e 382 475
e 382 476
e 382 477
e 382 478
e 382 480
e 382 484
e 382 485
e 382 486
e 382 489
e 382 491
e 382 496
e 382 498
e 382 500
e 382 501
e 382 502
e 382 505
e 382 513
e 382 514
e 382 515
e 382 516
e 382 518
e 382 521
e 382 523
e 382 525
e 382 526
e 382 530
e 382 531
e 382 532
e 382 533
e 382 534
e 382 537
e 382 545
e 382 546
e 382 551
e 382 552
e 382 566
e 382 567
e 382 568
e 382 569
e 382 570
e 382 571
e 382 573
e 382 575
e 382 576
e 382 577
e 382 578
e 382 579
e 382 580
e 382 581
e 382 582
e 382 583
e 382 584
e 382 585
e 382 593
e 382 599
e 382 602
e 382 606
e 382 607
e 382 609
e 382 610
e 382 612
e 382 614
e 382 615
e 382 616
e 382 617
e 382 618
e 382 619
e 382 621
e 382 623
e 382 624
e 382 626
e 382 627
e 382 632
e 382 633
e 382 636
e 382 640
e 382 642
e 382 647
e 382 648
e 382 651
e 382 654
e 382 656
e 382 657
e 382 658
e 382 659
e 382 661
e 382 662
e 382 663
e 382 664
e 382 665
e 382 668
e 382 671
e 382 677
e 382 678
e 382 679
e 382 680
e 382 681
e 382 682
e 382 684
e 382 690
e 382 691
e 382 692
e 382 694
e 382 695
e 382 696
e 382 698
e 382 699
e 382 701
e 382 702
e 382 703
e 382 704
e 382 705
e 382 706
e 382 707
e 382 709
e 382 710
e 382 711
e 382 712
e 382 713
e 382 714
e 382 715
e 382 716
e 382 717
e 382 718
e 382 723
e 382 726
e 382 731
e 382 732
e 382 733
e 382 734
e 382 736
e 382 738
e 382 739
e 382 740
e 382 741
e 382 743
e 382 746
e 382 748
e 382 749
e 382 751
e 382 752
e 382 753
e 382 754
e 382 755
e 382 756
e 382 757
e 382 758
e 382 759
e 382 760
e 382 761
e 382 763
e 382 764
e 382 770
e 382 771
e 382 772
e 382 774
e 382 776
e 382 777
e 383 384
e 383 399
e 383 400
e 383 401
e 383 402
e 383 405
e 383 406
e 383 410
e 383 418
e 383 427
e 383 428
e 383 432
e 383 434
e 383 435
e 383 436
e 383 437
e 383 438
e 383 440
e 383 441
e 383 442
e 383 444
e 383 445
e 383 446
e 383 447
e 383 449
e 383 451
e 383 457
e 383 460
e 383 462
e 383 468
e 383 475
e 383 476
e 383 478
e 383 479
e 383 480
e 383 484
e 383 489
e 383 493
e 383 498
e 383 502
e 383 505
e 383 513
e 383 514
e 383 515
e 383 516
e 383 521
e 383 528
e 383 530
e 383 537
e 383 545
e 383 546
e 383 551
e 383 557
e 383 560
e 383 563
e 383 568
e 383 570
e 383 571
e 383 578
e 383 580
e 383 581
e 383 583
e 383 584
e 383 585
e 383 591
e 383 594
e 383 599
e 383 605
e 383 607
e 383 610
e 383 613
e 383 615
e 383 616
e 383 618
e 383 619
e 383 622
e 383 623
e 383 626
e 383 640
e 383 646
e 383 647
e 383 648
e 383 651
e 383 659
e 383 660
e 383 662
e 383 666
e 383 669
e 383 675
e 383 678
e 383 681
e 383 682
e 383 683
e 383 684
e 383 685
e 383 688
e 383 689
e 383 690
e 383 691
e 383 696
e 383 697
e 383 699
e 383 700
e 383 706
e 383 707
e 383 709
e 383 710
e 383 715
e 383 716
e 383 720
e 383 722
e 383 725
e 383 726
e 383 730
e 383 731
e 383 733
e 383 734
e 383 735
e 383 739
e 383 746
e 383 752
e 383 754
e 383 757
e 383 758
e 383 760
e 383 761
e 383 763
e 383 764
e 383 766
e 383 770
e 383 771
e 383 772
e 383 773
e 383 774
e 383 776
e 383 777
e 384 388
e 384 399
e 384 419
e 384 422
e 384 427
e 384 435
e 384 436
e 384 437
e 384 439
e 384 440
e 384 442
e 384 446
e 384 451
e 385 390
e 385 391
e 385 408
e 385 409
e 385 413
e 385 415
e 385 423
e 385 435
e 385 438
e 385 442
e 385 452
e 385 454
e 385 456
e 386 402
e 386 422
e 386 423
e 386 436
e 386 437
e 386 439
e 386 440
e 386 444
e 386 446
e 386 455
e 387 390
e 387 393
e 387 417
e 387 435
e 387 442
e 387 452
e 387 454
e 387 456
e 388 402
e 388 405
e 388 407
e 388 418
e 388 429
e 388 430
e 388 434
e 388 437
e 388 438
e 388 439
e 388 441
e 388 445
e 388 774
e 389 398
e 389 402
e 389 403
e 389 407
e 389 414
e 389 420
e 389 422
e 389 423
e 389 426
e 389 433
e 389 443
e 389 455
e 390 391
e 390 393
e 390 408
e 390 409
e 390 417
e 390 423
e 390 435
e 390 442
e 390 452
e 390 454
e 390 456
e 391 399
e 391 405
e 391 408
e 391 409
e 391 413
e 391 415
e 391 423
e 391 428
e 391 432
e 391 435
e 391 436
e 391 438
e 391 446
e 391 448
e 391 455
e 391 457
e 391 460
e 391 461
e 391 467
e 391 471
e 391 472
e 391 473
e 391 474
e 391 475
e 391 476
e 391 477
e 391 478
e 391 479
e 391 480
e 391 481
e 391 482
e 391 483
e 391 484
e 391 485
e 391 486
e 391 496
e 391 497
e 391 498
e 391 499
e 391 501
e 391 502
e 391 505
e 391 508
e 391 513
e 391 514
e 391 515
e 391 516
e 391 530
e 391 537
e 391 541
e 391 542
e 391 545
e 391 546
e 391 548
e 391 551
e 391 567
e 391 568
e 391 569
e 391 570
e 391 571
e 391 573
e 391 576
e 391 577
e 391 580
e 391 581
e 391 582
e 391 584
e 391 590
e 391 593
e 391 599
e 391 603
e 391 607
e 391 617
e 391 618
e 391 619
e 391 621
e 391 623
e 391 625
e 391 626
e 391 628
e 391 630
e 391 631
e 391 632
e 391 634
e 391 638
e 391 645
e 391 646
e 391 647
e 391 648
e 391 651
e 391 662
e 391 673
e 391 678
e 391 680
e 391 681
e 391 682
e 391 684
e 391 686
e 391 688
e 391 691
e 391 694
e 391 695
e 391 696
e 391 699
e 391 700
e 391 707
e 391 710
e 391 720
e 391 724
e 391 725
e 391 726
e 391 731
e 391 732
e 391 734
e 391 741
e 391 743
e 391 745
e 391 747
e 391 750
e 391 753
e 391 757
e 391 761
e 391 766
e 391 769
e 391 778
e 392 402
e 392 406
e 392 416
e 392 420
e 392 422
e 392 423
e 392 426
e 392 427
e 392 437
e 392 442
e 392 447
e 392 449
e 392 450
e 392 451
e 392 774
e 393 402
e 393 404
e 393 435
e 393 442
e 393 452
e 393 456
e 394 395
e 394 396
e 394 405
e 394 407
e 394 409
e 394 429
e 394 430
e 394 434
e 394 448
e 395 396
e 395 405
e 395 407
e 395 409
e 395 429
e 395 430
e 395 434
e 395 448
e 396 405
e 396 407
e 396 409
e 396 429
e 396 430
e 396 434
e 396 448
e 397 410
e 397 423
e 397 428
e 397 447
e 397 450
e 397 456
e 398 401
e 398 402
e 398 403
e 398 407
e 398 413
e 398 414
e 398 422
e 398 423
e 398 426
e 398 433
e 398 438
e 398 443
e 398 447
e 398 449
e 398 451
e 398 454
e 398 455
e 398 774
e 399 400
e 399 401
e 399 404
e 399 405
e 399 410
e 399 411
e 399 413
e 399 421
e 399 422
e 399 424
e 399 427
e 399 428
e 399 432
e 399 434
e 399 435
e 399 436
e 399 437
e 399 438
e 399 439
e 399 441
e 399 442
e 399 445
e 399 446
e 399 448
e 399 449
e 399 451
e 399 455
e 399 456
e 399 457
e 399 460
e 399 461
e 399 467
e 399 469
e 399 470
e 399 471
e 399 473
e 399 474
e 399 475
e 399 476
e 399 477
e 399 478
e 399 479
e 399 480
e 399 481
e 399 483
e 399 484
e 399 485
e 399 486
e 399 488
e 399 489
e 399 491
e 399 493
e 399 496
e 399 498
e 399 502
e 399 503
e 399 504
e 399 505
e 399 506
e 399 509
e 399 510
e 399 511
e 399 512
e 399 513
e 399 515
e 399 516
e 399 517
e 399 518
e 399 521
e 399 530
e 399 535
e 399 543
e 399 545
e 399 546
e 399 547
e 399 551
e 399 552
e 399 560
e 399 562
e 399 564
e 399 565
e 399 566
e 399 568
e 399 570
e 399 571
e 399 577
e 399 578
e 399 579
e 399 580
e 399 581
e 399 585
e 399 596
e 399 597
e 399 598
e 399 599
e 399 600
e 399 607
e 399 610
e 399 615
e 399 616
e 399 617
e 399 618
e 399 619
e 399 620
e 399 621
e 399 622
e 399 623
e 399 624
e 399 626
e 399 627
e 399 629
e 399 632
e 399 633
e 399 638
e 399 640
e 399 642
e 399 644
e 399 645
e 399 646
e 399 648
e 399 651
e 399 655
e 399 656
e 399 658
e 399 659
e 399 662
e 399 663
e 399 664
e 399 665
e 399 671
e 399 677
e 399 678
e 399 680
e 399 681
e 399 682
e 399 684
e 399 690
e 399 693
e 399 695
e 399 696
e 399 697
e 399 702
e 399 704
e 399 705
e 399 706
e 399 707
e 399 708
e 399 709
e 399 711
e 399 713
e 399 714
e 399 715
e 399 716
e 399 717
e 399 718
e 399 720
e 399 724
e 399 730
e 399 731
e 399 733
e 399 734
e 399 735
e 399 737
e 399 739
e 399 740
e 399 741
e 399 743
e 399 745
e 399 746
e 399 747
e 399 751
e 399 753
e 399 754
e 399 755
e 399 756
e 399 757
e 399 758
e 399 760
e 399 761
e 399 765
e 399 766
e 399 768
e 399 772
e 399 773
e 399 774
e 399 776
e 399 777
e 399 778
e 400 402
e 400 410
e 400 411
e 400 421
e 400 428
e 400 432
e 400 435
e 400 436
e 400 446
e 400 448
e 400 455
e 400 456
e 400 457
e 400 460
e 400 461
e 400 462
e 400 476
e 400 477
e 400 478
e 400 481
e 400 484
e 400 485
e 400 486
e 400 489
e 400 496
e 400 498
e 400 502
e 400 505
e 400 513
e 400 514
e 400 515
e 400 516
e 400 530
e 400 545
e 400 546
e 400 551
e 400 552
e 400 558
e 400 562
e 400 563
e 400 564
e 400 570
e 400 571
e 400 577
e 400 581
e 400 582
e 400 583
e 400 593
e 400 596
e 400 599
e 400 607
e 400 608
e 400 622
e 400 623
e 400 636
e 400 640
e 400 642
e 400 646
e 400 651
e 400 652
e 400 656
e 400 657
e 400 664
e 400 665
e 400 670
e 400 672
e 400 679
e 400 680
e 400 681
e 400 682
e 400 687
e 400 690
e 400 692
e 400 706
e 400 711
e 400 714
e 400 715
e 400 717
e 400 718
e 400 721
e 400 731
e 400 733
e 400 738
e 400 746
e 400 748
e 400 752
e 400 755
e 400 758
e 400 759
e 400 760
e 400 761
e 400 764
e 400 770
e 400 773
e 400 778
e 401 405
e 401 406
e 401 412
e 401 413
e 401 427
e 401 433
e 401 437
e 401 438
e 401 441
e 401 445
e 401 450
e 401 451
e 401 454
e 401 774
e 402 403
e 402 404
e 402 405
e 402 406
e 402 407
e 402 409
e 402 411
e 402 413
e 402 414
e 402 415
e 402 416
e 402 418
e 402 419
e 402 420
e 402 422
e 402 423
e 402 424
e 402 425
e 402 426
e 402 428
e 402 429
e 402 430
e 402 433
e 402 434
e 402 435
e 402 436
e 402 437
e 402 438
e 402 439
e 402 440
e 402 441
e 402 442
e 402 443
e 402 444
e 402 445
e 402 446
e 402 447
e 402 449
e 402 450
e 402 455
e 402 460
e 402 462
e 402 467
e 402 469
e 402 476
e 402 477
e 402 479
e 402 480
e 402 484
e 402 498
e 402 505
e 402 513
e 402 514
e 402 515
e 402 527
e 402 530
e 402 537
e 402 538
e 402 545
e 402 546
e 402 551
e 402 563
e 402 571
e 402 581
e 402 582
e 402 583
e 402 587
e 402 590
e 402 593
e 402 599
e 402 607
e 402 608
e 402 615
e 402 616
e 402 621
e 402 622
e 402 624
e 402 625
e 402 626
e 402 633
e 402 639
e 402 640
e 402 642
e 402 644
e 402 647
e 402 651
e 402 663
e 402 670
e 402 672
e 402 679
e 402 681
e 402 682
e 402 684
e 402 687
e 402 691
e 402 696
e 402 707
e 402 714
e 402 731
e 402 733
e 402 736
e 402 738
e 402 742
e 402 745
e 402 748
e 402 752
e 402 755
e 402 759
e 402 760
e 402 761
e 402 764
e 402 765
e 402 770
e 402 773
e 402 774
e 402 777
e 403 407
e 403 414
e 403 416
e 403 420
e 403 422
e 403 424
e 403 426
e 403 427
e 403 433
e 403 437
e 403 443
e 403 447
e 403 450
e 403 454
e 404 405
e 404 412
e 404 413
e 404 415
e 404 417
e 404 425
e 404 444
e 404 445
e 404 451
e 405 406
e 405 407
e 405 409
e 405 414
e 405 418
e 405 423
e 405 427
e 405 429
e 405 430
e 405 431
e 405 434
e 405 435
e 405 436
e 405 437
e 405 438
e 405 440
e 405 441
e 405 444
e 405 445
e 405 446
e 405 448
e 405 450
e 405 451
e 405 455
e 405 461
e 405 471
e 405 472
e 405 473
e 405 475
e 405 476
e 405 477
e 405 478
e 405 479
e 405 480
e 405 482
e 405 484
e 405 486
e 405 502
e 405 513
e 405 514
e 405 529
e 405 537
e 405 545
e 405 546
e 405 548
e 405 551
e 405 568
e 405 571
e 405 592
e 405 593
e 405 595
e 405 609
e 405 621
e 405 626
e 405 633
e 405 648
e 405 651
e 405 659
e 405 661
e 405 679
e 405 682
e 405 684
e 405 695
e 405 700
e 405 720
e 405 741
e 405 743
e 405 774
e 406 416
e 406 422
e 406 426
e 406 437
e 406 442
e 406 444
e 406 445
e 406 447
e 406 449
e 406 450
e 406 451
e 407 409
e 407 414
e 407 416
e 407 422
e 407 423
e 407 426
e 407 427
e 407 429
e 407 430
e 407 433
e 407 434
e 407 437
e 407 439
e 407 441
e 407 443
e 407 447
e 407 448
e 407 449
e 407 455
e 407 774
e 408 409
e 408 413
e 408 415
e 408 423
e 408 428
e 408 433
e 408 435
e 408 438
e 408 442
e 408 446
e 408 452
e 408 454
e 408 456
e 409 413
e 409 414
e 409 415
e 409 419
e 409 422
e 409 423
e 409 426
e 409 428
e 409 429
e 409 430
e 409 433
e 409 434
e 409 435
e 409 437
e 409 438
e 409 440
e 409 443
e 409 446
e 409 448
e 410 422
e 410 423
e 410 428
e 410 432
e 410 436
e 410 438
e 410 446
e 410 447
e 410 450
e 410 452
e 410 456
e 410 457
e 410 460
e 410 461
e 410 462
e 410 467
e 410 473
e 410 476
e 410 477
e 410 479
e 410 480
e 410 481
e 410 485
e 410 486
e 410 491
e 410 498
e 410 502
e 410 513
e 410 514
e 410 516
e 410 528
e 410 530
e 410 537
e 410 545
e 410 546
e 410 551
e 410 554
e 410 555
e 410 562
e 410 563
e 410 570
e 410 571
e 410 577
e 410 578
e 410 580
e 410 581
e 410 583
e 410 593
e 410 597
e 410 598
e 410 599
e 410 600
e 410 607
e 410 611
e 410 622
e 410 623
e 410 626
e 410 644
e 410 647
e 410 648
e 410 651
e 410 655
e 410 657
e 410 662
e 410 667
e 410 679
e 410 681
e 410 684
e 410 690
e 410 693
e 410 696
e 410 699
e 410 703
e 410 706
e 410 711
e 410 714
e 410 715
e 410 716
e 410 718
e 410 719
e 410 721
e 410 727
e 410 728
e 410 729
e 410 737
e 410 738
e 410 748
e 410 751
e 410 752
e 410 759
e 410 765
e 410 767
e 410 768
e 410 769
e 410 770
e 410 775
e 410 778
e 411 421
e 411 427
e 411 428
e 411 435
e 411 436
e 411 438
e 411 446
e 411 448
e 411 455
e 411 456
e 411 461
e 411 473
e 411 478
e 411 485
e 411 486
e 411 489
e 411 502
e 411 505
e 411 513
e 411 514
e 411 516
e 411 530
e 411 545
e 411 551
e 411 552
e 411 558
e 411 564
e 411 566
e 411 571
e 411 578
e 411 581
e 411 593
e 411 596
e 411 599
e 411 615
e 411 616
e 411 626
e 411 632
e 411 640
e 411 642
e 411 646
e 411 652
e 411 656
e 411 657
e 411 664
e 411 665
e 411 677
e 411 679
e 411 680
e 411 682
e 411 690
e 411 696
e 411 704
e 411 705
e 411 714
e 411 715
e 411 731
e 411 740
e 411 746
e 411 748
e 411 751
e 411 753
e 411 755
e 411 756
e 411 759
e 411 761
e 412 417
e 412 418
e 412 419
e 412 422
e 412 435
e 412 438
e 412 446
e 413 415
e 413 416
e 413 424
e 413 425
e 413 428
e 413 433
e 413 434
e 413 435
e 413 437
e 413 438
e 413 441
e 413 442
e 413 451
e 413 454
e 413 774
e 414 422
e 414 423
e 414 426
e 414 427
e 414 433
e 414 435
e 414 440
e 414 443
e 414 447
e 414 449
e 414 455
e 415 424
e 415 425
e 415 428
e 415 438
e 415 446
e 416 426
e 416 427
e 416 437
e 416 438
e 416 441
e 416 447
e 416 449
e 416 450
e 417 418
e 417 419
e 417 428
e 417 435
e 417 437
e 417 442
e 417 446
e 417 452
e 417 454
e 417 456
e 418 419
e 418 434
e 418 435
e 418 438
e 418 440
e 418 441
e 418 444
e 418 445
e 418 774
e 419 435
e 419 436
e 419 437
e 419 439
e 419 440
e 419 443
e 419 446
e 420 422
e 420 423
e 420 424
e 420 426
e 420 433
e 420 437
e 420 442
e 420 449
e 420 450
e 420 454
e 420 455
e 421 427
e 421 432
e 421 436
e 421 438
e 421 446
e 421 456
e 421 460
e 421 461
e 421 473
e 421 485
e 421 486
e 421 491
e 421 502
e 421 513
e 421 516
e 421 530
e 421 545
e 421 546
e 421 551
e 421 553
e 421 566
e 421 570
e 421 571
e 421 578
e 421 579
e 421 581
e 421 593
e 421 599
e 421 604
e 421 615
e 421 616
e 421 626
e 421 632
e 421 642
e 421 644
e 421 648
e 421 677
e 421 681
e 421 682
e 421 684
e 421 690
e 421 696
e 421 704
e 421 705
e 421 706
e 421 710
e 421 711
e 421 714
e 421 717
e 421 718
e 421 719
e 421 731
e 421 734
e 421 740
e 421 746
e 421 751
e 421 753
e 421 755
e 421 756
e 421 758
e 421 759
e 421 762
e 421 775
e 422 423
e 422 424
e 422 427
e 422 432
e 422 433
e 422 435
e 422 436
e 422 437
e 422 438
e 422 439
e 422 440
e 422 442
e 422 443
e 422 446
e 422 447
e 422 449
e 422 450
e 422 451
e 422 454
e 422 455
e 422 457
e 422 460
e 422 467
e 422 477
e 422 479
e 422 480
e 422 481
e 422 485
e 422 486
e 422 491
e 422 496
e 422 505
e 422 513
e 422 514
e 422 516
e 422 530
e 422 543
e 422 545
e 422 546
e 422 551
e 422 554
e 422 555
e 422 561
e 422 568
e 422 570
e 422 571
e 422 577
e 422 590
e 422 599
e 422 607
e 422 620
e 422 623
e 422 629
e 422 634
e 422 638
e 422 640
e 422 648
e 422 653
e 422 657
e 422 662
e 422 667
e 422 672
e 422 681
e 422 682
e 422 684
e 422 687
e 422 690
e 422 691
e 422 704
e 422 708
e 422 711
e 422 715
e 422 716
e 422 718
e 422 719
e 422 724
e 422 734
e 422 738
e 422 742
e 422 744
e 422 747
e 422 753
e 422 759
e 422 762
e 422 765
e 422 766
e 422 769
e 422 775
e 422 778
e 423 427
e 423 435
e 423 436
e 423 437
e 423 438
e 423 439
e 423 440
e 423 442
e 423 443
e 423 444
e 423 446
e 423 447
e 423 449
e 423 450
e 423 451
e 423 452
e 423 454
e 423 455
e 423 456
e 423 461
e 423 475
e 423 490
e 423 491
e 423 492
e 423 500
e 423 502
e 423 514
e 423 530
e 423 571
e 423 593
e 423 599
e 423 609
e 423 614
e 423 633
e 423 659
e 423 661
e 423 668
e 423 682
e 423 696
e 423 731
e 423 734
e 423 749
e 423 774
e 424 425
e 424 433
e 424 434
e 424 437
e 424 450
e 424 454
e 424 774
e 425 438
e 425 450
e 426 433
e 426 435
e 426 437
e 426 440
e 426 442
e 426 443
e 426 447
e 426 449
e 426 450
e 427 432
e 427 435
e 427 436
e 427 437
e 427 438
e 427 439
e 427 441
e 427 442
e 427 445
e 427 446
e 427 447
e 427 451
e 427 455
e 427 461
e 427 467
e 427 473
e 427 475
e 427 477
e 427 485
e 427 486
e 427 489
e 427 502
e 427 505
e 427 513
e 427 515
e 427 516
e 427 518
e 427 530
e 427 537
e 427 539
e 427 545
e 427 546
e 427 551
e 427 566
e 427 570
e 427 571
e 427 577
e 427 578
e 427 579
e 427 593
e 427 599
e 427 607
e 427 612
e 427 615
e 427 616
e 427 620
e 427 624
e 427 626
e 427 627
e 427 632
e 427 639
e 427 641
e 427 642
e 427 644
e 427 647
e 427 648
e 427 654
e 427 655
e 427 664
e 427 670
e 427 677
e 427 681
e 427 682
e 427 684
e 427 686
e 427 690
e 427 691
e 427 693
e 427 696
e 427 702
e 427 704
e 427 705
e 427 707
e 427 709
e 427 710
e 427 713
e 427 714
e 427 715
e 427 717
e 427 718
e 427 731
e 427 733
e 427 740
e 427 745
e 427 746
e 427 751
e 427 753
e 427 755
e 427 756
e 427 759
e 427 768
e 427 774
e 428 432
e 428 435
e 428 436
e 428 438
e 428 446
e 428 448
e 428 449
e 428 455
e 428 456
e 428 460
e 428 462
e 428 471
e 428 474
e 428 475
e 428 476
e 428 478
e 428 479
e 428 480
e 428 481
e 428 483
e 428 484
e 428 485
e 428 486
e 428 489
e 428 491
e 428 498
e 428 501
e 428 502
e 428 505
e 428 507
e 428 509
e 428 510
e 428 511
e 428 512
e 428 513
e 428 514
e 428 515
e 428 516
e 428 520
e 428 521
e 428 527
e 428 530
e 428 537
e 428 545
e 428 546
e 428 548
e 428 551
e 428 552
e 428 557
e 428 558
e 428 563
e 428 564
e 428 568
e 428 570
e 428 571
e 428 578
e 428 580
e 428 581
e 428 582
e 428 583
e 428 584
e 428 585
e 428 587
e 428 590
e 428 591
e 428 592
e 428 593
e 428 596
e 428 599
e 428 605
e 428 607
e 428 610
e 428 615
e 428 617
e 428 618
e 428 619
e 428 621
e 428 622
e 428 623
e 428 625
e 428 626
e 428 640
e 428 642
e 428 643
e 428 645
e 428 646
e 428 648
e 428 651
e 428 652
e 428 656
e 428 657
e 428 660
e 428 662
e 428 663
e 428 664
e 428 665
e 428 666
e 428 669
e 428 675
e 428 678
e 428 679
e 428 680
e 428 681
e 428 682
e 428 683
e 428 684
e 428 685
e 428 688
e 428 689
e 428 690
e 428 691
e 428 695
e 428 696
e 428 697
e 428 700
e 428 707
e 428 709
e 428 710
e 428 714
e 428 715
e 428 716
e 428 720
e 428 722
e 428 725
e 428 726
e 428 730
e 428 731
e 428 732
e 428 733
e 428 735
e 428 739
e 428 741
e 428 743
e 428 744
e 428 746
e 428 748
e 428 751
e 428 752
e 428 754
e 428 755
e 428 759
e 428 760
e 428 761
e 428 764
e 428 765
e 428 766
e 428 769
e 428 770
e 428 771
e 428 772
e 428 773
e 428 776
e 428 777
e 429 430
e 429 434
e 429 437
e 429 439
e 429 441
e 429 448
e 429 774
e 430 434
e 430 437
e 430 439
e 430 441
e 430 448
e 430 774
e 431 435
e 431 455
e 431 461
e 431 478
e 431 479
e 431 486
e 431 502
e 431 513
e 431 529
e 431 571
e 431 592
e 431 593
e 431 595
e 431 626
e 431 633
e 431 651
e 431 659
e 431 661
e 431 679
e 431 682
e 431 684
e 431 695
e 431 700
e 431 720
e 431 741
e 431 743
e 432 435
e 432 436
e 432 438
e 432 446
e 432 448
e 432 449
e 432 453
e 432 456
e 432 457
e 432 460
e 432 461
e 432 462
e 432 467
e 432 468
e 432 470
e 432 475
e 432 476
e 432 477
e 432 478
e 432 479
e 432 480
e 432 481
e 432 484
e 432 485
e 432 486
e 432 489
e 432 491
e 432 493
e 432 496
e 432 498
e 432 501
e 432 502
e 432 505
e 432 513
e 432 514
e 432 515
e 432 516
e 432 518
e 432 519
e 432 521
e 432 530
e 432 535
e 432 536
e 432 537
e 432 545
e 432 546
e 432 551
e 432 552
e 432 554
e 432 555
e 432 557
e 432 560
e 432 563
e 432 568
e 432 570
e 432 571
e 432 572
e 432 574
e 432 577
e 432 578
e 432 579
e 432 580
e 432 581
e 432 582
e 432 584
e 432 591
e 432 593
e 432 594
e 432 599
e 432 601
e 432 605
e 432 607
e 432 610
e 432 613
e 432 615
e 432 617
e 432 618
e 432 619
e 432 621
e 432 622
e 432 623
e 432 626
e 432 633
e 432 637
e 432 640
e 432 642
e 432 645
e 432 646
e 432 647
e 432 648
e 432 650
e 432 651
e 432 657
e 432 659
e 432 660
e 432 662
e 432 666
e 432 667
e 432 669
e 432 671
e 432 675
e 432 676
e 432 677
e 432 678
e 432 680
e 432 681
e 432 682
e 432 683
e 432 684
e 432 685
e 432 688
e 432 689
e 432 690
e 432 692
e 432 696
e 432 697
e 432 698
e 432 699
e 432 701
e 432 702
e 432 706
e 432 709
e 432 710
e 432 711
e 432 712
e 432 713
e 432 714
e 432 715
e 432 716
e 432 717
e 432 718
e 432 719
e 432 721
e 432 722
e 432 723
e 432 725
e 432 726
e 432 730
e 432 731
e 432 732
e 432 734
e 432 735
e 432 739
e 432 740
e 432 741
e 432 743
e 432 745
e 432 746
e 432 748
e 432 749
e 432 752
e 432 754
e 432 755
e 432 756
e 432 757
e 432 758
e 432 759
e 432 760
e 432 761
e 432 762
e 432 763
e 432 764
e 432 765
e 432 766
e 432 767
e 432 769
e 432 771
e 432 772
e 432 773
e 432 775
e 432 776
e 432 777
e 432 778
e 433 435
e 433 437
e 433 438
e 433 440
e 433 442
e 433 443
e 433 450
e 433 451
e 433 454
e 433 774
e 434 437
e 434 438
e 434 440
e 434 441
e 434 442
e 434 444
e 434 445
e 434 448
e 434 774
e 435 436
e 435 437
e 435 438
e 435 439
e 435 440
e 435 442
e 435 443
e 435 446
e 435 448
e 435 451
e 435 452
e 435 453
e 435 454
e 435 455
e 435 456
e 435 457
e 435 461
e 435 471
e 435 473
e 435 475
e 435 478
e 435 479
e 435 480
e 435 484
e 435 486
e 435 491
e 435 493
e 435 498
e 435 501
e 435 502
e 435 508
e 435 513
e 435 514
e 435 515
e 435 516
e 435 521
e 435 529
e 435 531
e 435 532
e 435 533
e 435 534
e 435 537
e 435 545
e 435 552
e 435 558
e 435 560
e 435 562
e 435 564
e 435 567
e 435 568
e 435 569
e 435 570
e 435 571
e 435 573
e 435 576
e 435 577
e 435 580
e 435 581
e 435 582
e 435 584
e 435 592
e 435 593
e 435 595
e 435 596
e 435 599
e 435 607
e 435 609
e 435 610
e 435 617
e 435 618
e 435 619
e 435 621
e 435 622
e 435 623
e 435 626
e 435 632
e 435 633
e 435 642
e 435 645
e 435 648
e 435 651
e 435 652
e 435 656
e 435 657
e 435 659
e 435 661
e 435 662
e 435 664
e 435 665
e 435 675
e 435 678
e 435 679
e 435 680
e 435 682
e 435 684
e 435 688
e 435 690
e 435 694
e 435 695
e 435 696
e 435 697
e 435 700
e 435 701
e 435 703
e 435 707
e 435 710
e 435 716
e 435 718
e 435 720
e 435 725
e 435 726
e 435 727
e 435 728
e 435 729
e 435 730
e 435 732
e 435 734
e 435 738
e 435 739
e 435 741
e 435 743
e 435 749
e 435 754
e 435 766
e 435 767
e 435 768
e 435 775
e 436 437
e 436 439
e 436 440
e 436 442
e 436 446
e 436 448
e 436 451
e 436 455
e 436 456
e 436 457
e 436 460
e 436 461
e 436 467
e 436 469
e 436 471
e 436 473
e 436 476
e 436 477
e 436 479
e 436 480
e 436 481
e 436 484
e 436 486
e 436 489
e 436 493
e 436 496
e 436 498
e 436 502
e 436 505
e 436 513
e 436 514
e 436 515
e 436 516
e 436 517
e 436 530
e 436 537
e 436 538
e 436 541
e 436 542
e 436 545
e 436 546
e 436 551
e 436 556
e 436 562
e 436 568
e 436 570
e 436 571
e 436 577
e 436 581
e 436 582
e 436 590
e 436 593
e 436 596
e 436 597
e 436 598
e 436 599
e 436 600
e 436 603
e 436 607
e 436 608
e 436 615
e 436 616
e 436 618
e 436 620
e 436 623
e 436 624
e 436 626
e 436 628
e 436 629
e 436 630
e 436 631
e 436 632
e 436 633
e 436 634
e 436 640
e 436 642
e 436 644
e 436 646
e 436 647
e 436 648
e 436 651
e 436 653
e 436 655
e 436 657
e 436 662
e 436 664
e 436 670
e 436 672
e 436 673
e 436 678
e 436 679
e 436 681
e 436 682
e 436 686
e 436 687
e 436 690
e 436 691
e 436 693
e 436 696
e 436 697
e 436 704
e 436 705
e 436 711
e 436 714
e 436 715
e 436 716
e 436 721
e 436 730
e 436 731
e 436 734
e 436 736
e 436 737
e 436 738
e 436 739
e 436 742
e 436 744
e 436 745
e 436 748
e 436 750
e 436 751
e 436 753
e 436 755
e 436 756
e 436 757
e 436 759
e 436 761
e 436 762
e 436 763
e 436 764
e 436 765
e 436 766
e 436 768
e 436 769
e 436 778
e 437 438
e 437 439
e 437 440
e 437 441
e 437 442
e 437 443
e 437 444
e 437 445
e 437 446
e 437 447
e 437 449
e 437 450
e 437 451
e 437 454
e 437 455
e 437 774
e 438 440
e 438 441
e 438 442
e 438 443
e 438 444
e 438 445
e 438 446
e 438 448
e 438 449
e 438 451
e 438 452
e 438 453
e 438 454
e 438 455
e 438 456
e 438 460
e 438 461
e 438 464
e 438 465
e 438 466
e 438 467
e 438 468
e 438 471
e 438 473
e 438 474
e 438 475
e 438 477
e 438 478
e 438 479
e 438 480
e 438 481
e 438 483
e 438 484
e 438 485
e 438 486
e 438 488
e 438 489
e 438 491
e 438 493
e 438 498
e 438 503
e 438 504
e 438 505
e 438 506
e 438 509
e 438 510
e 438 511
e 438 512
e 438 513
e 438 514
e 438 515
e 438 516
e 438 519
e 438 520
e 438 521
e 438 523
e 438 525
e 438 526
e 438 527
e 438 530
e 438 531
e 438 532
e 438 533
e 438 534
e 438 537
e 438 544
e 438 545
e 438 546
e 438 547
e 438 549
e 438 550
e 438 551
e 438 552
e 438 554
e 438 555
e 438 558
e 438 563
e 438 564
e 438 565
e 438 566
e 438 567
e 438 568
e 438 569
e 438 570
e 438 571
e 438 573
e 438 576
e 438 577
e 438 578
e 438 579
e 438 581
e 438 582
e 438 583
e 438 584
e 438 585
e 438 587
e 438 589
e 438 590
e 438 593
e 438 594
e 438 595
e 438 599
e 438 602
e 438 607
e 438 609
e 438 610
e 438 613
e 438 615
e 438 616
e 438 617
e 438 618
e 438 619
e 438 621
e 438 622
e 438 623
e 438 624
e 438 625
e 438 626
e 438 627
e 438 632
e 438 633
e 438 636
e 438 637
e 438 640
e 438 642
e 438 643
e 438 645
e 438 646
e 438 648
e 438 649
e 438 651
e 438 652
e 438 656
e 438 657
e 438 658
e 438 659
e 438 660
e 438 661
e 438 662
e 438 663
e 438 664
e 438 665
e 438 666
e 438 667
e 438 668
e 438 669
e 438 675
e 438 677
e 438 678
e 438 679
e 438 680
e 438 681
e 438 682
e 438 684
e 438 689
e 438 690
e 438 691
e 438 694
e 438 695
e 438 696
e 438 699
e 438 700
e 438 701
e 438 702
e 438 704
e 438 705
e 438 707
e 438 710
e 438 711
e 438 713
e 438 714
e 438 715
e 438 716
e 438 717
e 438 718
e 438 719
e 438 720
e 438 726
e 438 731
e 438 732
e 438 733
e 438 734
e 438 739
e 438 740
e 438 741
e 438 743
e 438 744
e 438 746
e 438 748
e 438 749
e 438 751
e 438 753
e 438 754
e 438 755
e 438 756
e 438 759
e 438 761
e 438 762
e 438 765
e 438 769
e 438 770
e 438 771
e 438 772
e 438 773
e 438 774
e 438 775
e 438 776
e 438 777
e 439 441
e 439 442
e 439 444
e 439 446
e 439 451
e 439 455
e 439 774
e 440 441
e 440 443
e 440 444
e 440 445
e 440 446
e 440 449
e 440 455
e 440 774
e 441 444
e 441 445
e 441 451
e 441 774
e 442 444
e 442 445
e 442 447
e 442 449
e 442 451
e 442 452
e 442 454
e 442 456
e 442 774
e 443 447
e 443 449
e 443 455
e 444 445
e 444 447
e 444 455
e 444 774
e 445 447
e 445 451
e 445 774
e 446 448
e 446 449
e 446 455
e 446 457
e 446 460
e 446 461
e 446 462
e 446 464
e 446 465
e 446 466
e 446 467
e 446 468
e 446 473
e 446 476
e 446 477
e 446 479
e 446 480
e 446 481
e 446 485
e 446 486
e 446 489
e 446 496
e 446 498
e 446 502
e 446 503
e 446 504
e 446 505
e 446 506
e 446 513
e 446 514
e 446 515
e 446 516
e 446 519
e 446 528
e 446 530
e 446 537
e 446 545
e 446 546
e 446 551
e 446 552
e 446 563
e 446 565
e 446 566
e 446 568
e 446 570
e 446 571
e 446 575
e 446 577
e 446 578
e 446 580
e 446 581
e 446 583
e 446 586
e 446 593
e 446 599
e 446 606
e 446 607
e 446 615
e 446 616
e 446 622
e 446 623
e 446 624
e 446 626
e 446 627
e 446 632
e 446 640
e 446 641
e 446 642
e 446 647
e 446 648
e 446 651
e 446 653
e 446 659
e 446 664
e 446 665
e 446 666
e 446 667
e 446 675
e 446 677
e 446 679
e 446 680
e 446 681
e 446 682
e 446 684
e 446 690
e 446 692
e 446 696
e 446 698
e 446 699
e 446 702
e 446 703
e 446 704
e 446 705
e 446 706
e 446 712
e 446 713
e 446 714
e 446 715
e 446 716
e 446 718
e 446 721
e 446 723
e 446 731
e 446 733
e 446 734
e 446 735
e 446 738
e 446 740
e 446 746
e 446 747
e 446 751
e 446 752
e 446 753
e 446 754
e 446 755
e 446 756
e 446 758
e 446 760
e 446 763
e 446 764
e 446 765
e 446 769
e 446 770
e 446 771
e 446 773
e 446 777
e 446 778
e 447 449
e 447 450
e 447 455
e 448 453
e 448 455
e 448 461
e 448 462
e 448 464
e 448 465
e 448 466
e 448 468
e 448 469
e 448 470
e 448 471
e 448 475
e 448 477
e 448 478
e 448 481
e 448 485
e 448 486
e 448 488
e 448 491
e 448 502
e 448 503
e 448 504
e 448 505
e 448 506
e 448 513
e 448 514
e 448 515
e 448 516
e 448 519
e 448 531
e 448 532
e 448 533
e 448 534
e 448 536
e 448 537
e 448 545
e 448 547
e 448 551
e 448 552
e 448 558
e 448 564
e 448 565
e 448 567
e 448 569
e 448 570
e 448 571
e 448 573
e 448 576
e 448 577
e 448 579
e 448 581
e 448 593
e 448 596
e 448 601
e 448 626
e 448 627
e 448 632
e 448 642
e 448 646
e 448 648
e 448 650
e 448 651
e 448 652
e 448 656
e 448 657
e 448 658
e 448 662
e 448 664
e 448 665
e 448 666
e 448 675
e 448 676
e 448 680
e 448 682
e 448 684
e 448 690
e 448 694
e 448 701
e 448 702
e 448 713
e 448 714
e 448 726
e 448 734
e 448 740
e 448 741
e 448 743
e 448 746
e 448 749
e 448 752
e 448 757
e 448 758
e 448 763
e 448 764
e 448 773
e 449 450
e 449 451
e 449 455
e 449 460
e 449 467
e 449 475
e 449 478
e 449 479
e 449 480
e 449 484
e 449 489
e 449 491
e 449 498
e 449 502
e 449 505
e 449 513
e 449 515
e 449 516
e 449 518
e 449 519
e 449 540
e 449 545
e 449 557
e 449 563
e 449 568
e 449 570
e 449 579
e 449 581
e 449 583
e 449 584
e 449 585
e 449 587
e 449 591
e 449 593
e 449 599
e 449 605
e 449 607
e 449 618
e 449 619
e 449 623
e 449 626
e 449 640
e 449 643
e 449 646
e 449 648
e 449 651
e 449 658
e 449 660
e 449 662
e 449 666
e 449 669
e 449 671
e 449 675
e 449 678
e 449 681
e 449 682
e 449 684
e 449 685
e 449 688
e 449 690
e 449 700
e 449 705
e 449 707
e 449 709
e 449 710
e 449 716
e 449 720
e 449 722
e 449 725
e 449 732
e 449 733
e 449 736
e 449 741
e 449 744
e 449 746
e 449 747
e 449 748
e 449 751
e 449 753
e 449 754
e 449 759
e 449 761
e 449 765
e 449 770
e 449 771
e 449 772
e 449 774
e 449 776
e 449 777
e 450 451
e 450 454
e 451 454
e 451 774
e 452 454
e 452 456
e 453 470
e 453 471
e 453 476
e 453 486
e 453 491
e 453 498
e 453 505
e 453 514
e 453 531
e 453 532
e 453 533
e 453 534
e 453 537
e 453 552
e 453 571
e 453 577
e 453 581
e 453 626
e 453 632
e 453 650
e 453 651
e 453 659
e 453 665
e 453 698
e 453 701
e 453 712
e 453 723
e 453 734
e 453 735
e 453 741
e 453 743
e 453 749
e 453 754
e 453 758
e 453 760
e 453 764
e 453 773
e 453 777
e 454 456
e 454 774
e 455 460
e 455 461
e 455 464
e 455 465
e 455 466
e 455 467
e 455 468
e 455 469
e 455 470
e 455 471
e 455 474
e 455 475
e 455 477
e 455 478
e 455 479
e 455 480
e 455 481
e 455 483
e 455 484
e 455 485
e 455 486
e 455 489
e 455 496
e 455 497
e 455 498
e 455 499
e 455 502
e 455 503
e 455 504
e 455 505
e 455 506
e 455 513
e 455 514
e 455 515
e 455 516
e 455 519
e 455 520
e 455 529
e 455 530
e 455 537
e 455 545
e 455 551
e 455 552
e 455 558
e 455 562
e 455 564
e 455 565
e 455 568
e 455 571
e 455 581
e 455 582
e 455 590
e 455 592
e 455 593
e 455 595
e 455 596
e 455 608
e 455 609
e 455 621
e 455 624
e 455 625
e 455 626
e 455 627
e 455 633
e 455 636
e 455 642
e 455 645
e 455 646
e 455 648
e 455 651
e 455 652
e 455 656
e 455 657
e 455 659
e 455 661
e 455 663
e 455 664
e 455 665
e 455 666
e 455 668
e 455 670
e 455 672
e 455 675
e 455 678
e 455 679
e 455 680
e 455 681
e 455 682
e 455 684
e 455 687
e 455 690
e 455 691
e 455 692
e 455 695
e 455 696
e 455 700
e 455 701
e 455 702
e 455 712
e 455 713
e 455 715
e 455 720
e 455 731
e 455 733
e 455 734
e 455 738
e 455 740
e 455 741
e 455 743
e 455 746
e 455 747
e 455 749
e 455 750
e 455 756
e 455 761
e 455 763
e 455 769
e 455 777
e 456 460
e 456 461
e 456 469
e 456 475
e 456 476
e 456 477
e 456 479
e 456 485
e 456 486
e 456 489
e 456 498
e 456 502
e 456 505
e 456 513
e 456 514
e 456 515
e 456 530
e 456 545
e 456 547
e 456 549
e 456 551
e 456 558
e 456 568
e 456 570
e 456 571
e 456 581
e 456 589
e 456 594
e 456 596
e 456 599
e 456 607
e 456 615
e 456 622
e 456 623
e 456 626
e 456 642
e 456 646
e 456 647
e 456 648
e 456 649
e 456 652
e 456 657
e 456 658
e 456 659
e 456 660
e 456 664
e 456 666
e 456 668
e 456 677
e 456 678
e 456 682
e 456 684
e 456 690
e 456 694
e 456 696
e 456 706
e 456 709
e 456 711
e 456 714
e 456 715
e 456 717
e 456 718
e 456 722
e 456 725
e 456 726
e 456 731
e 456 734
e 456 735
e 456 736
e 456 746
e 456 754
e 456 757
e 456 758
e 456 761
e 456 771
e 456 772
e 456 776
e 456 777
e 457 460
e 457 461
e 457 462
e 457 467
e 457 471
e 457 476
e 457 477
e 457 479
e 457 480
e 457 481
e 457 493
e 457 496
e 457 498
e 457 502
e 457 505
e 457 513
e 457 514
e 457 515
e 457 516
e 457 517
e 457 521
e 457 530
e 457 537
e 457 543
e 457 545
e 457 546
e 457 551
e 457 560
e 457 563
e 457 568
e 457 570
e 457 577
e 457 581
e 457 583
e 457 593
e 457 599
e 457 607
e 457 618
e 457 620
e 457 622
e 457 623
e 457 629
e 457 638
e 457 640
e 457 646
e 457 648
e 457 653
e 457 662
e 457 667
e 457 672
e 457 678
e 457 679
e 457 681
e 457 682
e 457 684
e 457 687
e 457 690
e 457 697
e 457 704
e 457 708
e 457 711
e 457 716
e 457 721
e 457 724
e 457 730
e 457 734
e 457 738
e 457 739
e 457 742
e 457 744
e 457 747
e 457 748
e 457 752
e 457 753
e 457 759
e 457 762
e 457 763
e 457 765
e 457 766
e 457 769
e 457 770
e 457 778
e 458 459
e 458 460
e 458 461
e 458 462
e 458 484
e 458 513
e 458 515
e 458 516
e 458 523
e 458 524
e 458 526
e 458 614
e 458 623
e 458 681
e 458 713
e 458 734
e 458 749
e 459 460
e 459 461
e 459 462
e 459 484
e 459 513
e 459 515
e 459 516
e 459 523
e 459 524
e 459 526
e 459 614
e 459 623
e 459 681
e 459 713
e 459 734
e 459 749
e 460 461
e 460 462
e 460 467
e 460 471
e 460 476
e 460 477
e 460 479
e 460 480
e 460 481
e 460 484
e 460 485
e 460 486
e 460 491
e 460 496
e 460 497
e 460 498
e 460 499
e 460 502
e 460 505
e 460 509
e 460 510
e 460 511
e 460 512
e 460 513
e 460 514
e 460 515
e 460 516
e 460 523
e 460 524
e 460 526
e 460 530
e 460 537
e 460 540
e 460 541
e 460 542
e 460 545
e 460 546
e 460 556
e 460 563
e 460 568
e 460 570
e 460 571
e 460 575
e 460 577
e 460 578
e 460 581
e 460 583
e 460 586
e 460 590
e 460 593
e 460 599
e 460 603
e 460 606
e 460 607
e 460 612
e 460 614
e 460 615
e 460 616
e 460 617
e 460 621
e 460 622
e 460 623
e 460 625
e 460 626
e 460 628
e 460 629
e 460 630
e 460 631
e 460 634
e 460 640
e 460 641
e 460 642
e 460 643
e 460 646
e 460 647
e 460 648
e 460 651
e 460 653
e 460 654
e 460 658
e 460 659
e 460 662
e 460 663
e 460 667
e 460 671
e 460 673
e 460 677
e 460 678
e 460 679
e 460 681
e 460 682
e 460 684
e 460 686
e 460 690
e 460 691
e 460 696
e 460 698
e 460 703
e 460 705
e 460 706
e 460 707
e 460 711
e 460 713
e 460 715
e 460 716
e 460 717
e 460 718
e 460 721
e 460 723
e 460 731
e 460 733
e 460 734
e 460 735
e 460 736
e 460 738
e 460 741
e 460 745
e 460 746
e 460 747
e 460 748
e 460 749
e 460 750
e 460 752
e 460 753
e 460 754
e 460 757
e 460 758
e 460 760
e 460 761
e 460 763
e 460 764
e 460 765
e 460 769
e 460 770
e 460 771
e 460 773
e 460 777
e 460 778
e 461 462
e 461 463
e 461 464
e 461 465
e 461 466
e 461 467
e 461 468
e 461 469
e 461 470
e 461 471
e 461 472
e 461 473
e 461 475
e 461 476
e 461 477
e 461 478
e 461 479
e 461 480
e 461 481
e 461 482
e 461 484
e 461 485
e 461 486
e 461 488
e 461 489
e 461 496
e 461 500
e 461 502
e 461 503
e 461 504
e 461 505
e 461 506
e 461 513
e 461 514
e 461 515
e 461 516
e 461 518
e 461 519
e 461 523
e 461 524
e 461 525
e 461 526
e 461 529
e 461 530
e 461 537
e 461 545
e 461 546
e 461 547
e 461 548
e 461 551
e 461 552
e 461 562
e 461 564
e 461 565
e 461 567
e 461 568
e 461 569
e 461 570
e 461 571
e 461 573
e 461 576
e 461 577
e 461 579
e 461 580
e 461 581
e 461 582
e 461 592
e 461 593
e 461 595
e 461 596
e 461 599
e 461 607
e 461 608
e 461 609
e 461 614
e 461 615
e 461 616
e 461 621
e 461 623
e 461 624
e 461 626
e 461 627
e 461 632
e 461 633
e 461 636
e 461 642
e 461 646
e 461 647
e 461 648
e 461 651
e 461 656
e 461 658
e 461 659
e 461 661
e 461 665
e 461 666
e 461 668
e 461 670
e 461 672
e 461 675
e 461 677
e 461 679
e 461 680
e 461 681
e 461 682
e 461 684
e 461 687
e 461 690
e 461 692
e 461 694
e 461 695
e 461 696
e 461 699
e 461 700
e 461 702
e 461 704
e 461 705
e 461 706
e 461 709
e 461 710
e 461 711
e 461 712
e 461 713
e 461 714
e 461 717
e 461 718
e 461 720
e 461 721
e 461 723
e 461 726
e 461 731
e 461 734
e 461 736
e 461 738
e 461 740
e 461 741
e 461 743
e 461 745
e 461 746
e 461 748
e 461 749
e 461 751
e 461 753
e 461 755
e 461 756
e 461 757
e 461 758
e 461 759
e 461 760
e 461 763
e 461 778
e 462 467
e 462 475
e 462 476
e 462 477
e 462 480
e 462 481
e 462 484
e 462 498
e 462 502
e 462 505
e 462 513
e 462 514
e 462 515
e 462 516
e 462 523
e 462 524
e 462 526
e 462 530
e 462 536
e 462 537
e 462 545
e 462 546
e 462 552
e 462 563
e 462 568
e 462 570
e 462 577
e 462 581
e 462 582
e 462 583
e 462 599
e 462 601
e 462 607
e 462 614
e 462 615
e 462 622
e 462 623
e 462 633
e 462 639
e 462 640
e 462 642
e 462 644
e 462 650
e 462 662
e 462 675
e 462 676
e 462 679
e 462 681
e 462 682
e 462 684
e 462 691
e 462 713
e 462 714
e 462 715
e 462 716
e 462 721
e 462 731
e 462 733
e 462 734
e 462 735
e 462 742
e 462 749
e 462 752
e 462 757
e 462 758
e 462 760
e 462 763
e 462 764
e 462 770
e 462 773
e 462 778
e 463 477
e 463 496
e 463 514
e 463 516
e 463 525
e 463 530
e 463 537
e 463 562
e 463 571
e 463 581
e 463 616
e 463 626
e 463 636
e 463 651
e 463 682
e 463 687
e 463 696
e 463 731
e 463 734
e 463 745
e 463 756
e 463 757
e 463 760
e 464 465
e 464 466
e 464 468
e 464 486
e 464 503
e 464 504
e 464 506
e 464 513
e 464 514
e 464 515
e 464 519
e 464 545
e 464 551
e 464 552
e 464 565
e 464 593
e 464 626
e 464 665
e 464 666
e 464 675
e 464 682
e 464 684
e 465 466
e 465 468
e 465 486
e 465 503
e 465 504
e 465 506
e 465 513
e 465 514
e 465 515
e 465 519
e 465 545
e 465 551
e 465 552
e 465 565
e 465 593
e 465 626
e 465 665
e 465 666
e 465 675
e 465 682
e 465 684
e 466 468
e 466 486
e 466 503
e 466 504
e 466 506
e 466 513
e 466 514
e 466 515
e 466 519
e 466 545
e 466 551
e 466 552
e 466 565
e 466 593
e 466 626
e 466 665
e 466 666
e 466 675
e 466 682
e 466 684
e 467 469
e 467 471
e 467 473
e 467 475
e 467 476
e 467 477
e 467 479
e 467 480
e 467 481
e 467 484
e 467 485
e 467 486
e 467 489
e 467 491
e 467 496
e 467 497
e 467 498
e 467 499
e 467 502
e 467 505
e 467 513
e 467 514
e 467 515
e 467 516
e 467 518
e 467 530
e 467 535
e 467 537
e 467 538
e 467 545
e 467 546
e 467 551
e 467 554
e 467 555
e 467 562
e 467 563
e 467 570
e 467 571
e 467 577
e 467 581
e 467 582
e 467 583
e 467 587
e 467 599
e 467 602
e 467 607
e 467 608
e 467 611
e 467 615
e 467 616
e 467 622
e 467 623
e 467 624
e 467 625
e 467 626
e 467 633
e 467 639
e 467 640
e 467 642
e 467 644
e 467 646
e 467 647
e 467 648
e 467 651
e 467 653
e 467 657
e 467 659
e 467 662
e 467 667
e 467 670
e 467 671
e 467 672
e 467 678
e 467 681
e 467 682
e 467 684
e 467 687
e 467 690
e 467 691
e 467 696
e 467 702
e 467 703
e 467 704
e 467 705
e 467 709
e 467 711
e 467 713
e 467 715
e 467 716
e 467 717
e 467 718
e 467 719
e 467 727
e 467 728
e 467 729
e 467 732
e 467 734
e 467 736
e 467 737
e 467 738
e 467 740
e 467 741
e 467 742
e 467 744
e 467 745
e 467 747
e 467 748
e 467 750
e 467 751
e 467 753
e 467 754
e 467 756
e 467 759
e 467 760
e 467 761
e 467 762
e 467 765
e 467 767
e 467 768
e 467 769
e 467 773
e 467 775
e 467 776
e 467 778
e 468 475
e 468 476
e 468 477
e 468 486
e 468 489
e 468 491
e 468 493
e 468 494
e 468 495
e 468 498
e 468 502
e 468 503
e 468 504
e 468 506
e 468 513
e 468 514
e 468 515
e 468 519
e 468 544
e 468 545
e 468 551
e 468 552
e 468 559
e 468 563
e 468 565
e 468 568
e 468 570
e 468 571
e 468 572
e 468 574
e 468 577
e 468 580
e 468 581
e 468 589
e 468 593
e 468 594
e 468 599
e 468 606
e 468 607
e 468 613
e 468 615
e 468 622
e 468 623
e 468 626
e 468 637
e 468 646
e 468 648
e 468 651
e 468 658
e 468 665
e 468 666
e 468 669
e 468 675
e 468 676
e 468 682
e 468 683
e 468 684
e 468 685
e 468 689
e 468 694
e 468 698
e 468 701
e 468 714
e 468 726
e 468 741
e 468 743
e 468 749
e 468 761
e 468 767
e 468 771
e 469 470
e 469 475
e 469 477
e 469 479
e 469 484
e 469 485
e 469 486
e 469 502
e 469 503
e 469 504
e 469 505
e 469 506
e 469 513
e 469 514
e 469 515
e 469 530
e 469 537
e 469 538
e 469 545
e 469 551
e 469 552
e 469 565
e 469 582
e 469 596
e 469 599
e 469 607
e 469 608
e 469 616
e 469 624
e 469 626
e 469 633
e 469 646
e 469 647
e 469 651
e 469 658
e 469 665
e 469 668
e 469 670
e 469 672
e 469 677
e 469 680
e 469 682
e 469 684
e 469 687
e 469 702
e 469 713
e 469 736
e 469 738
e 469 740
e 469 745
e 469 746
e 470 476
e 470 477
e 470 485
e 470 498
e 470 502
e 470 503
e 470 504
e 470 505
e 470 506
e 470 514
e 470 515
e 470 516
e 470 545
e 470 551
e 470 552
e 470 565
e 470 571
e 470 577
e 470 581
e 470 596
e 470 626
e 470 646
e 470 650
e 470 651
e 470 659
e 470 665
e 470 680
e 470 682
e 470 684
e 470 692
e 470 698
e 470 702
e 470 706
e 470 712
e 470 713
e 470 723
e 470 735
e 470 740
e 470 746
e 470 754
e 470 757
e 470 758
e 470 760
e 470 764
e 470 773
e 470 777
e 471 472
e 471 473
e 471 476
e 471 477
e 471 478
e 471 479
e 471 480
e 471 481
e 471 482
e 471 484
e 471 486
e 471 491
e 471 493
e 471 496
e 471 497
e 471 498
e 471 499
e 471 502
e 471 513
e 471 514
e 471 517
e 471 520
e 471 530
e 471 531
e 471 532
e 471 533
e 471 534
e 471 537
e 471 545
e 471 546
e 471 548
e 471 551
e 471 552
e 471 568
e 471 571
e 471 577
e 471 590
e 471 593
e 471 607
e 471 618
e 471 620
e 471 621
e 471 625
e 471 626
e 471 632
e 471 646
e 471 648
e 471 651
e 471 662
e 471 663
e 471 665
e 471 678
e 471 681
e 471 682
e 471 684
e 471 691
e 471 696
e 471 697
e 471 701
e 471 716
e 471 730
e 471 734
e 471 739
e 471 741
e 471 743
e 471 747
e 471 749
e 471 750
e 471 761
e 471 766
e 471 769
e 471 777
e 472 473
e 472 476
e 472 477
e 472 478
e 472 480
e 472 482
e 472 484
e 472 486
e 472 502
e 472 513
e 472 514
e 472 545
e 472 546
e 472 548
e 472 551
e 472 568
e 472 593
e 472 621
e 472 626
e 472 648
e 472 684
e 473 476
e 473 477
e 473 478
e 473 480
e 473 482
e 473 484
e 473 485
e 473 486
e 473 491
e 473 502
e 473 513
e 473 514
e 473 516
e 473 530
e 473 545
e 473 546
e 473 548
e 473 551
e 473 553
e 473 562
e 473 566
e 473 568
e 473 571
e 473 578
e 473 593
e 473 599
e 473 604
e 473 611
e 473 615
e 473 616
e 473 621
e 473 622
e 473 623
e 473 626
e 473 632
e 473 642
e 473 644
e 473 648
e 473 657
e 473 662
e 473 675
e 473 677
e 473 679
e 473 682
e 473 684
e 473 690
e 473 696
e 473 703
e 473 704
e 473 705
e 473 714
e 473 716
e 473 718
e 473 719
e 473 727
e 473 728
e 473 729
e 473 734
e 473 737
e 473 738
e 473 740
e 473 746
e 473 751
e 473 753
e 473 754
e 473 755
e 473 756
e 473 762
e 473 767
e 473 768
e 473 775
e 474 475
e 474 479
e 474 480
e 474 481
e 474 483
e 474 485
e 474 513
e 474 515
e 474 516
e 474 645
e 474 648
e 474 695
e 474 696
e 474 743
e 475 477
e 475 478
e 475 479
e 475 480
e 475 481
e 475 483
e 475 484
e 475 485
e 475 486
e 475 489
e 475 491
e 475 494
e 475 495
e 475 498
e 475 500
e 475 501
e 475 502
e 475 505
e 475 513
e 475 514
e 475 515
e 475 516
e 475 521
e 475 530
e 475 537
e 475 544
e 475 545
e 475 546
e 475 551
e 475 557
e 475 559
e 475 563
e 475 567
e 475 568
e 475 569
e 475 570
e 475 571
e 475 573
e 475 576
e 475 577
e 475 578
e 475 580
e 475 581
e 475 582
e 475 583
e 475 584
e 475 585
e 475 587
e 475 591
e 475 593
e 475 595
e 475 599
e 475 605
e 475 606
e 475 607
e 475 609
e 475 610
e 475 613
e 475 614
e 475 617
e 475 618
e 475 619
e 475 621
e 475 622
e 475 623
e 475 626
e 475 632
e 475 633
e 475 636
e 475 637
e 475 640
e 475 645
e 475 646
e 475 647
e 475 648
e 475 649
e 475 651
e 475 652
e 475 655
e 475 658
e 475 659
e 475 660
e 475 661
e 475 662
e 475 663
e 475 666
e 475 668
e 475 669
e 475 675
e 475 677
e 475 678
e 475 679
e 475 680
e 475 681
e 475 682
e 475 683
e 475 684
e 475 685
e 475 688
e 475 689
e 475 690
e 475 691
e 475 693
e 475 694
e 475 695
e 475 696
e 475 697
e 475 698
e 475 707
e 475 709
e 475 710
e 475 714
e 475 715
e 475 716
e 475 722
e 475 725
e 475 726
e 475 730
e 475 731
e 475 732
e 475 733
e 475 734
e 475 735
e 475 736
e 475 739
e 475 741
e 475 743
e 475 744
e 475 746
e 475 749
e 475 754
e 475 761
e 475 766
e 475 767
e 475 768
e 475 770
e 475 771
e 475 772
e 475 773
e 475 776
e 476 477
e 476 478
e 476 479
e 476 480
e 476 481
e 476 482
e 476 484
e 476 486
e 476 491
e 476 496
e 476 498
e 476 502
e 476 505
e 476 513
e 476 514
e 476 515
e 476 516
e 476 530
e 476 535
e 476 537
e 476 545
e 476 546
e 476 548
e 476 551
e 476 552
e 476 563
e 476 568
e 476 570
e 476 571
e 476 572
e 476 574
e 476 575
e 476 577
e 476 578
e 476 580
e 476 581
e 476 583
e 476 593
e 476 599
e 476 606
e 476 607
e 476 616
e 476 621
e 476 622
e 476 623
e 476 626
e 476 633
e 476 637
e 476 640
e 476 648
e 476 650
e 476 651
e 476 659
e 476 671
e 476 676
e 476 677
e 476 679
e 476 681
e 476 682
e 476 684
e 476 691
e 476 696
e 476 698
e 476 701
e 476 703
e 476 712
e 476 713
e 476 714
e 476 715
e 476 716
e 476 717
e 476 718
e 476 721
e 476 723
e 476 731
e 476 733
e 476 734
e 476 735
e 476 738
e 476 741
e 476 743
e 476 745
e 476 749
e 476 752
e 476 754
e 476 756
e 476 757
e 476 758
e 476 760
e 476 761
e 476 763
e 476 764
e 476 767
e 476 770
e 476 771
e 476 773
e 476 777
e 476 778
e 477 478
e 477 479
e 477 480
e 477 481
e 477 482
e 477 484
e 477 486
e 477 489
e 477 491
e 477 496
e 477 498
e 477 502
e 477 505
e 477 513
e 477 514
e 477 515
e 477 516
e 477 521
e 477 522
e 477 523
e 477 525
e 477 526
e 477 530
e 477 536
e 477 537
e 477 538
e 477 539
e 477 545
e 477 546
e 477 548
e 477 550
e 477 551
e 477 552
e 477 562
e 477 563
e 477 568
e 477 570
e 477 571
e 477 572
e 477 574
e 477 577
e 477 580
e 477 581
e 477 582
e 477 583
e 477 590
e 477 593
e 477 599
e 477 601
e 477 603
e 477 607
e 477 608
e 477 611
e 477 612
e 477 615
e 477 616
e 477 620
e 477 621
e 477 622
e 477 623
e 477 624
e 477 626
e 477 627
e 477 633
e 477 636
e 477 637
e 477 639
e 477 641
e 477 642
e 477 644
e 477 647
e 477 648
e 477 650
e 477 651
e 477 653
e 477 654
e 477 657
e 477 658
e 477 662
e 477 664
e 477 667
e 477 668
e 477 670
e 477 672
e 477 673
e 477 675
e 477 676
e 477 677
e 477 679
e 477 680
e 477 681
e 477 682
e 477 684
e 477 686
e 477 687
e 477 690
e 477 691
e 477 692
e 477 696
e 477 699
e 477 701
e 477 702
e 477 703
e 477 706
e 477 707
e 477 712
e 477 713
e 477 714
e 477 715
e 477 716
e 477 718
e 477 719
e 477 721
e 477 723
e 477 727
e 477 728
e 477 729
e 477 731
e 477 733
e 477 734
e 477 736
e 477 737
e 477 738
e 477 740
e 477 741
e 477 742
e 477 743
e 477 745
e 477 747
e 477 749
e 477 752
e 477 756
e 477 757
e 477 758
e 477 760
e 477 763
e 477 764
e 477 765
e 477 767
e 477 768
e 477 769
e 477 770
e 477 773
e 477 775
e 477 778
e 478 479
e 478 480
e 478 482
e 478 484
e 478 486
e 478 488
e 478 502
e 478 508
e 478 513
e 478 514
e 478 515
e 478 516
e 478 521
e 478 529
e 478 530
e 478 537
e 478 545
e 478 546
e 478 547
e 478 548
e 478 551
e 478 552
e 478 558
e 478 564
e 478 565
e 478 568
e 478 571
e 478 579
e 478 580
e 478 581
e 478 584
e 478 585
e 478 592
e 478 593
e 478 595
e 478 596
e 478 599
e 478 607
e 478 609
e 478 610
e 478 618
e 478 619
e 478 621
e 478 623
e 478 626
e 478 627
e 478 633
e 478 640
e 478 642
e 478 645
e 478 646
e 478 648
e 478 651
e 478 652
e 478 656
e 478 657
e 478 658
e 478 659
e 478 660
e 478 661
e 478 662
e 478 664
e 478 665
e 478 668
e 478 669
e 478 678
e 478 679
e 478 680
e 478 682
e 478 684
e 478 690
e 478 695
e 478 696
e 478 697
e 478 700
e 478 701
e 478 707
e 478 716
e 478 720
e 478 725
e 478 730
e 478 731
e 478 732
e 478 734
e 478 739
e 478 741
e 478 743
e 478 749
e 478 761
e 478 766
e 478 771
e 478 772
e 478 776
e 479 480
e 479 481
e 479 483
e 479 484
e 479 485
e 479 486
e 479 491
e 479 496
e 479 497
e 479 498
e 479 499
e 479 502
e 479 505
e 479 508
e 479 513
e 479 514
e 479 515
e 479 516
e 479 528
e 479 529
e 479 530
e 479 537
e 479 538
e 479 543
e 479 545
e 479 546
e 479 551
e 479 563
e 479 568
e 479 570
e 479 571
e 479 577
e 479 578
e 479 580
e 479 581
e 479 582
e 479 588
e 479 592
e 479 593
e 479 595
e 479 599
e 479 607
e 479 608
e 479 616
e 479 618
e 479 620
e 479 621
e 479 623
e 479 624
e 479 625
e 479 626
e 479 629
e 479 633
e 479 635
e 479 638
e 479 643
e 479 644
e 479 645
e 479 646
e 479 647
e 479 648
e 479 651
e 479 659
e 479 661
e 479 662
e 479 670
e 479 672
e 479 674
e 479 677
e 479 678
e 479 679
e 479 681
e 479 682
e 479 684
e 479 687
e 479 688
e 479 690
e 479 691
e 479 695
e 479 696
e 479 699
e 479 700
e 479 706
e 479 707
e 479 708
e 479 710
e 479 717
e 479 718
e 479 720
e 479 724
e 479 725
e 479 732
e 479 733
e 479 734
e 479 735
e 479 736
e 479 738
e 479 741
e 479 742
e 479 743
e 479 744
e 479 745
e 479 747
e 479 750
e 479 751
e 479 753
e 479 754
e 479 757
e 479 758
e 479 760
e 479 761
e 479 762
e 479 763
e 479 764
e 479 765
e 479 766
e 479 769
e 479 770
e 479 773
e 479 777
e 479 778
e 480 481
e 480 482
e 480 483
e 480 484
e 480 485
e 480 486
e 480 491
e 480 496
e 480 498
e 480 501
e 480 502
e 480 505
e 480 507
e 480 513
e 480 514
e 480 515
e 480 516
e 480 530
e 480 537
e 480 543
e 480 545
e 480 546
e 480 548
e 480 551
e 480 554
e 480 555
e 480 563
e 480 568
e 480 570
e 480 571
e 480 577
e 480 581
e 480 582
e 480 583
e 480 584
e 480 587
e 480 588
e 480 592
e 480 593
e 480 599
e 480 604
e 480 605
e 480 607
e 480 615
e 480 616
e 480 617
e 480 618
e 480 619
e 480 620
e 480 621
e 480 623
e 480 626
e 480 629
e 480 633
e 480 635
e 480 638
e 480 639
e 480 640
e 480 642
e 480 644
e 480 645
e 480 648
e 480 651
e 480 653
e 480 657
e 480 662
e 480 667
e 480 672
e 480 674
e 480 681
e 480 682
e 480 684
e 480 687
e 480 688
e 480 690
e 480 691
e 480 693
e 480 695
e 480 696
e 480 704
e 480 707
e 480 708
e 480 710
e 480 711
e 480 715
e 480 716
e 480 718
e 480 719
e 480 724
e 480 731
e 480 732
e 480 733
e 480 734
e 480 735
e 480 736
e 480 738
e 480 741
e 480 742
e 480 743
e 480 744
e 480 746
e 480 747
e 480 750
e 480 753
e 480 754
e 480 755
e 480 757
e 480 759
e 480 761
e 480 762
e 480 763
e 480 764
e 480 765
e 480 766
e 480 769
e 480 770
e 480 773
e 480 775
e 480 776
e 480 778
e 481 483
e 481 485
e 481 493
e 481 496
e 481 498
e 481 502
e 481 505
e 481 513
e 481 514
e 481 515
e 481 516
e 481 517
e 481 530
e 481 536
e 481 537
e 481 545
e 481 546
e 481 551
e 481 552
e 481 563
e 481 568
e 481 570
e 481 577
e 481 581
e 481 583
e 481 593
e 481 599
e 481 601
e 481 607
e 481 618
e 481 620
e 481 622
e 481 623
e 481 640
e 481 645
e 481 646
e 481 648
e 481 650
e 481 653
e 481 662
e 481 667
e 481 672
e 481 675
e 481 676
e 481 678
e 481 679
e 481 681
e 481 682
e 481 684
e 481 687
e 481 690
e 481 695
e 481 696
e 481 697
e 481 704
e 481 711
e 481 714
e 481 716
e 481 721
e 481 730
e 481 734
e 481 738
e 481 739
e 481 742
e 481 743
e 481 744
e 481 747
e 481 748
e 481 752
e 481 757
e 481 758
e 481 759
e 481 762
e 481 763
e 481 764
e 481 765
e 481 766
e 481 769
e 481 770
e 481 773
e 481 778
e 482 484
e 482 486
e 482 502
e 482 513
e 482 514
e 482 545
e 482 546
e 482 548
e 482 551
e 482 568
e 482 593
e 482 621
e 482 626
e 482 648
e 482 684
e 483 485
e 483 513
e 483 515
e 483 516
e 483 645
e 483 648
e 483 695
e 483 696
e 483 743
e 484 486
e 484 491
e 484 496
e 484 498
e 484 501
e 484 502
e 484 505
e 484 509
e 484 510
e 484 511
e 484 512
e 484 513
e 484 514
e 484 515
e 484 516
e 484 521
e 484 523
e 484 524
e 484 525
e 484 526
e 484 537
e 484 538
e 484 545
e 484 546
e 484 548
e 484 551
e 484 562
e 484 568
e 484 571
e 484 578
e 484 580
e 484 581
e 484 582
e 484 583
e 484 584
e 484 593
e 484 599
e 484 607
e 484 608
e 484 610
e 484 614
e 484 615
e 484 616
e 484 617
e 484 618
e 484 621
e 484 623
e 484 624
e 484 626
e 484 633
e 484 636
e 484 639
e 484 640
e 484 642
e 484 644
e 484 647
e 484 648
e 484 651
e 484 662
e 484 663
e 484 669
e 484 670
e 484 672
e 484 678
e 484 680
e 484 681
e 484 682
e 484 684
e 484 687
e 484 690
e 484 692
e 484 696
e 484 697
e 484 700
e 484 707
e 484 713
e 484 716
e 484 720
e 484 730
e 484 731
e 484 732
e 484 734
e 484 736
e 484 738
e 484 739
e 484 741
e 484 742
e 484 745
e 484 749
e 484 756
e 484 761
e 484 766
e 484 771
e 484 772
e 484 773
e 484 776
e 485 486
e 485 502
e 485 503
e 485 504
e 485 505
e 485 506
e 485 513
e 485 514
e 485 515
e 485 516
e 485 530
e 485 545
e 485 551
e 485 552
e 485 554
e 485 555
e 485 565
e 485 566
e 485 570
e 485 571
e 485 578
e 485 581
e 485 596
e 485 626
e 485 642
e 485 645
e 485 646
e 485 648
e 485 665
e 485 667
e 485 677
e 485 680
e 485 682
e 485 684
e 485 695
e 485 696
e 485 702
e 485 706
e 485 711
e 485 713
e 485 714
e 485 715
e 485 716
e 485 717
e 485 718
e 485 731
e 485 740
e 485 743
e 485 746
e 485 755
e 485 756
e 485 758
e 485 759
e 485 765
e 485 769
e 486 489
e 486 491
e 486 496
e 486 498
e 486 502
e 486 503
e 486 504
e 486 506
e 486 513
e 486 514
e 486 515
e 486 516
e 486 519
e 486 529
e 486 530
e 486 531
e 486 532
e 486 533
e 486 534
e 486 537
e 486 545
e 486 546
e 486 548
e 486 551
e 486 552
e 486 554
e 486 555
e 486 558
e 486 562
e 486 563
e 486 564
e 486 565
e 486 566
e 486 567
e 486 568
e 486 569
e 486 570
e 486 571
e 486 572
e 486 573
e 486 574
e 486 576
e 486 577
e 486 578
e 486 579
e 486 580
e 486 581
e 486 592
e 486 593
e 486 595
e 486 596
e 486 597
e 486 598
e 486 599
e 486 600
e 486 607
e 486 611
e 486 621
e 486 622
e 486 623
e 486 624
e 486 626
e 486 627
e 486 632
e 486 633
e 486 637
e 486 642
e 486 644
e 486 646
e 486 647
e 486 648
e 486 649
e 486 651
e 486 652
e 486 655
e 486 656
e 486 657
e 486 658
e 486 659
e 486 660
e 486 661
e 486 662
e 486 664
e 486 665
e 486 666
e 486 667
e 486 668
e 486 675
e 486 676
e 486 677
e 486 678
e 486 679
e 486 680
e 486 681
e 486 682
e 486 684
e 486 690
e 486 692
e 486 693
e 486 694
e 486 695
e 486 696
e 486 700
e 486 701
e 486 702
e 486 703
e 486 706
e 486 709
e 486 710
e 486 711
e 486 712
e 486 713
e 486 714
e 486 715
e 486 716
e 486 717
e 486 718
e 486 719
e 486 720
e 486 722
e 486 725
e 486 726
e 486 727
e 486 728
e 486 729
e 486 731
e 486 733
e 486 734
e 486 736
e 486 737
e 486 738
e 486 740
e 486 741
e 486 743
e 486 746
e 486 749
e 486 751
e 486 754
e 486 755
e 486 756
e 486 758
e 486 759
e 486 761
e 486 762
e 486 763
e 486 765
e 486 767
e 486 768
e 486 769
e 486 771
e 486 772
e 486 775
e 487 513
e 487 515
e 487 516
e 487 524
e 487 551
e 487 583
e 487 614
e 487 734
e 488 547
e 488 552
e 488 564
e 488 565
e 488 571
e 488 579
e 488 581
e 488 627
e 488 646
e 488 648
e 488 656
e 488 658
e 488 665
e 488 680
e 488 684
e 489 491
e 489 493
e 489 494
e 489 495
e 489 496
e 489 502
e 489 505
e 489 513
e 489 514
e 489 515
e 489 516
e 489 518
e 489 519
e 489 530
e 489 544
e 489 545
e 489 546
e 489 551
e 489 559
e 489 563
e 489 568
e 489 570
e 489 571
e 489 579
e 489 581
e 489 589
e 489 591
e 489 596
e 489 599
e 489 606
e 489 607
e 489 613
e 489 622
e 489 623
e 489 624
e 489 626
e 489 637
e 489 640
e 489 642
e 489 646
e 489 648
e 489 651
e 489 657
e 489 658
e 489 660
e 489 664
e 489 666
e 489 669
e 489 675
e 489 678
e 489 680
e 489 681
e 489 682
e 489 683
e 489 684
e 489 685
e 489 689
e 489 690
e 489 692
e 489 694
e 489 696
e 489 698
e 489 702
e 489 709
e 489 710
e 489 712
e 489 713
e 489 714
e 489 715
e 489 717
e 489 718
e 489 722
e 489 725
e 489 726
e 489 731
e 489 740
e 489 746
e 489 756
e 489 759
e 489 761
e 489 763
e 489 767
e 489 771
e 489 772
e 489 776
e 490 491
e 490 492
e 490 514
e 490 530
e 490 571
e 490 593
e 490 609
e 490 614
e 490 659
e 490 661
e 490 682
e 490 696
e 490 731
e 490 734
e 490 749
e 491 492
e 491 493
e 491 494
e 491 495
e 491 496
e 491 498
e 491 502
e 491 505
e 491 509
e 491 510
e 491 511
e 491 512
e 491 513
e 491 514
e 491 515
e 491 516
e 491 521
e 491 530
e 491 531
e 491 532
e 491 533
e 491 534
e 491 537
e 491 540
e 491 544
e 491 545
e 491 551
e 491 552
e 491 553
e 491 559
e 491 562
e 491 563
e 491 568
e 491 570
e 491 571
e 491 572
e 491 574
e 491 577
e 491 578
e 491 580
e 491 581
e 491 582
e 491 583
e 491 588
e 491 589
e 491 593
e 491 599
e 491 604
e 491 606
e 491 607
e 491 609
e 491 610
e 491 611
e 491 613
e 491 614
e 491 615
e 491 617
e 491 621
e 491 622
e 491 623
e 491 626
e 491 632
e 491 635
e 491 636
e 491 637
e 491 640
e 491 643
e 491 644
e 491 646
e 491 648
e 491 651
e 491 657
e 491 658
e 491 659
e 491 661
e 491 662
e 491 663
e 491 665
e 491 666
e 491 671
e 491 674
e 491 675
e 491 676
e 491 679
e 491 681
e 491 682
e 491 684
e 491 689
e 491 690
e 491 693
e 491 694
e 491 696
e 491 698
e 491 701
e 491 703
e 491 705
e 491 707
e 491 708
e 491 714
e 491 715
e 491 716
e 491 718
e 491 719
e 491 724
e 491 726
e 491 727
e 491 728
e 491 729
e 491 731
e 491 733
e 491 734
e 491 736
e 491 737
e 491 738
e 491 739
e 491 741
e 491 742
e 491 743
e 491 744
e 491 747
e 491 748
e 491 749
e 491 750
e 491 751
e 491 753
e 491 754
e 491 755
e 491 756
e 491 759
e 491 762
e 491 765
e 491 767
e 491 768
e 491 770
e 491 771
e 491 772
e 491 773
e 491 775
e 491 777
e 492 514
e 492 530
e 492 571
e 492 593
e 492 609
e 492 614
e 492 659
e 492 661
e 492 682
e 492 696
e 492 731
e 492 734
e 492 749
e 493 502
e 493 513
e 493 515
e 493 517
e 493 521
e 493 544
e 493 546
e 493 551
e 493 559
e 493 560
e 493 570
e 493 589
e 493 594
e 493 607
e 493 613
e 493 615
e 493 618
e 493 620
e 493 637
e 493 646
e 493 648
e 493 649
e 493 658
e 493 662
e 493 669
e 493 678
e 493 682
e 493 683
e 493 684
e 493 685
e 493 689
e 493 697
e 493 709
e 493 714
e 493 716
e 493 722
e 493 730
e 493 739
e 493 761
e 493 766
e 493 767
e 494 495
e 494 544
e 494 559
e 494 563
e 494 570
e 494 581
e 494 599
e 494 606
e 494 607
e 494 613
e 494 622
e 494 623
e 494 637
e 494 646
e 494 658
e 494 666
e 494 684
e 494 694
e 494 698
e 494 714
e 494 726
e 494 767
e 494 771
e 495 544
e 495 559
e 495 563
e 495 570
e 495 581
e 495 599
e 495 606
e 495 607
e 495 613
e 495 622
e 495 623
e 495 637
e 495 646
e 495 658
e 495 666
e 495 684
e 495 694
e 495 698
e 495 714
e 495 726
e 495 767
e 495 771
e 496 497
e 496 498
e 496 499
e 496 502
e 496 505
e 496 513
e 496 514
e 496 515
e 496 516
e 496 525
e 496 530
e 496 535
e 496 537
e 496 546
e 496 562
e 496 568
e 496 571
e 496 577
e 496 581
e 496 582
e 496 588
e 496 599
e 496 604
e 496 608
e 496 612
e 496 616
e 496 622
e 496 623
e 496 624
e 496 625
e 496 626
e 496 633
e 496 635
e 496 636
e 496 640
e 496 644
e 496 646
e 496 648
e 496 651
e 496 653
e 496 654
e 496 658
e 496 659
e 496 662
e 496 670
e 496 671
e 496 672
e 496 674
e 496 678
e 496 680
e 496 681
e 496 682
e 496 684
e 496 687
e 496 691
e 496 692
e 496 693
e 496 696
e 496 704
e 496 707
e 496 708
e 496 712
e 496 713
e 496 717
e 496 718
e 496 724
e 496 731
e 496 734
e 496 736
e 496 738
e 496 741
e 496 742
e 496 744
e 496 745
e 496 747
e 496 750
e 496 752
e 496 754
e 496 755
e 496 756
e 496 757
e 496 760
e 496 761
e 496 762
e 496 763
e 496 769
e 496 775
e 496 777
e 496 778
e 497 498
e 497 499
e 497 530
e 497 625
e 497 626
e 497 646
e 497 651
e 497 678
e 497 681
e 497 691
e 497 734
e 497 747
e 497 750
e 497 761
e 497 769
e 498 499
e 498 501
e 498 502
e 498 505
e 498 513
e 498 514
e 498 515
e 498 516
e 498 520
e 498 527
e 498 530
e 498 535
e 498 537
e 498 545
e 498 546
e 498 552
e 498 563
e 498 568
e 498 570
e 498 571
e 498 572
e 498 574
e 498 575
e 498 577
e 498 578
e 498 580
e 498 581
e 498 582
e 498 583
e 498 584
e 498 587
e 498 590
e 498 599
e 498 606
e 498 607
e 498 616
e 498 617
e 498 621
e 498 622
e 498 623
e 498 625
e 498 626
e 498 633
e 498 637
e 498 640
e 498 646
e 498 650
e 498 651
e 498 659
e 498 663
e 498 671
e 498 676
e 498 677
e 498 678
e 498 679
e 498 681
e 498 682
e 498 684
e 498 690
e 498 691
e 498 696
e 498 698
e 498 701
e 498 703
e 498 707
e 498 712
e 498 713
e 498 714
e 498 715
e 498 716
e 498 717
e 498 718
e 498 721
e 498 723
e 498 731
e 498 732
e 498 733
e 498 734
e 498 735
e 498 738
e 498 741
e 498 743
e 498 744
e 498 745
e 498 747
e 498 749
e 498 750
e 498 752
e 498 754
e 498 756
e 498 757
e 498 758
e 498 760
e 498 761
e 498 763
e 498 764
e 498 765
e 498 767
e 498 769
e 498 770
e 498 771
e 498 773
e 498 776
e 498 777
e 498 778
e 499 530
e 499 625
e 499 626
e 499 646
e 499 651
e 499 678
e 499 681
e 499 691
e 499 734
e 499 747
e 499 750
e 499 761
e 499 769
e 500 502
e 500 514
e 500 530
e 500 593
e 500 599
e 500 609
e 500 614
e 500 633
e 500 659
e 500 661
e 500 668
e 500 682
e 500 696
e 500 731
e 500 734
e 500 749
e 501 502
e 501 513
e 501 515
e 501 516
e 501 537
e 501 584
e 501 599
e 501 617
e 501 621
e 501 696
e 501 732
e 501 741
e 502 505
e 502 508
e 502 513
e 502 514
e 502 515
e 502 516
e 502 517
e 502 518
e 502 519
e 502 521
e 502 529
e 502 530
e 502 537
e 502 539
e 502 540
e 502 545
e 502 546
e 502 548
e 502 551
e 502 552
e 502 553
e 502 558
e 502 560
e 502 563
e 502 564
e 502 568
e 502 570
e 502 571
e 502 577
e 502 579
e 502 580
e 502 581
e 502 582
e 502 583
e 502 584
e 502 586
e 502 591
e 502 592
e 502 593
e 502 594
e 502 595
e 502 596
e 502 599
e 502 604
e 502 607
e 502 609
e 502 610
e 502 612
e 502 613
e 502 614
e 502 615
e 502 616
e 502 617
e 502 618
e 502 619
e 502 620
e 502 621
e 502 623
e 502 624
e 502 626
e 502 632
e 502 633
e 502 639
e 502 640
e 502 641
e 502 642
e 502 643
e 502 644
e 502 645
e 502 646
e 502 647
e 502 648
e 502 651
e 502 652
e 502 654
e 502 656
e 502 657
e 502 658
e 502 659
e 502 660
e 502 661
e 502 662
e 502 664
e 502 665
e 502 666
e 502 668
e 502 669
e 502 670
e 502 671
e 502 674
e 502 675
e 502 677
e 502 678
e 502 679
e 502 680
e 502 681
e 502 682
e 502 683
e 502 684
e 502 685
e 502 686
e 502 688
e 502 689
e 502 690
e 502 691
e 502 692
e 502 693
e 502 695
e 502 696
e 502 697
e 502 699
e 502 700
e 502 702
e 502 704
e 502 705
e 502 706
e 502 707
e 502 708
e 502 709
e 502 710
e 502 711
e 502 712
e 502 713
e 502 714
e 502 715
e 502 716
e 502 717
e 502 718
e 502 719
e 502 720
e 502 721
e 502 722
e 502 723
e 502 725
e 502 726
e 502 730
e 502 731
e 502 732
e 502 733
e 502 734
e 502 735
e 502 736
e 502 739
e 502 740
e 502 741
e 502 742
e 502 743
e 502 745
e 502 746
e 502 747
e 502 748
e 502 749
e 502 750
e 502 751
e 502 753
e 502 754
e 502 755
e 502 756
e 502 757
e 502 758
e 502 759
e 502 761
e 502 762
e 502 763
e 502 764
e 502 766
e 502 770
e 502 771
e 502 772
e 502 773
e 502 775
e 502 776
e 502 778
e 503 504
e 503 505
e 503 506
e 503 513
e 503 514
e 503 515
e 503 519
e 503 545
e 503 551
e 503 552
e 503 565
e 503 593
e 503 596
e 503 626
e 503 646
e 503 665
e 503 666
e 503 675
e 503 680
e 503 682
e 503 684
e 503 702
e 503 713
e 503 740
e 503 746
e 504 505
e 504 506
e 504 513
e 504 514
e 504 515
e 504 519
e 504 545
e 504 551
e 504 552
e 504 565
e 504 593
e 504 596
e 504 626
e 504 646
e 504 665
e 504 666
e 504 675
e 504 680
e 504 682
e 504 684
e 504 702
e 504 713
e 504 740
e 504 746
e 505 506
e 505 513
e 505 514
e 505 515
e 505 516
e 505 518
e 505 521
e 505 522
e 505 530
e 505 536
e 505 537
e 505 538
e 505 539
e 505 541
e 505 542
e 505 545
e 505 546
e 505 551
e 505 552
e 505 563
e 505 565
e 505 568
e 505 570
e 505 571
e 505 577
e 505 578
e 505 581
e 505 582
e 505 583
e 505 587
e 505 590
e 505 593
e 505 596
e 505 599
e 505 601
e 505 603
e 505 607
e 505 608
e 505 612
e 505 616
e 505 620
e 505 622
e 505 623
e 505 624
e 505 626
e 505 628
e 505 630
e 505 631
e 505 633
e 505 634
e 505 639
e 505 640
e 505 641
e 505 642
e 505 643
e 505 644
e 505 646
e 505 647
e 505 648
e 505 650
e 505 651
e 505 653
e 505 654
e 505 658
e 505 659
e 505 662
e 505 665
e 505 670
e 505 671
e 505 672
e 505 673
e 505 675
e 505 676
e 505 677
e 505 679
e 505 680
e 505 681
e 505 682
e 505 684
e 505 686
e 505 687
e 505 690
e 505 691
e 505 696
e 505 698
e 505 702
e 505 704
e 505 707
e 505 709
e 505 712
e 505 713
e 505 714
e 505 715
e 505 716
e 505 717
e 505 718
e 505 723
e 505 731
e 505 732
e 505 733
e 505 734
e 505 735
e 505 736
e 505 738
e 505 740
e 505 741
e 505 742
e 505 744
e 505 745
e 505 746
e 505 748
e 505 750
e 505 751
e 505 752
e 505 754
e 505 755
e 505 757
e 505 758
e 505 759
e 505 760
e 505 761
e 505 762
e 505 763
e 505 764
e 505 765
e 505 769
e 505 770
e 505 773
e 505 776
e 505 777
e 505 778
e 506 513
e 506 514
e 506 515
e 506 519
e 506 545
e 506 551
e 506 552
e 506 565
e 506 593
e 506 596
e 506 626
e 506 646
e 506 665
e 506 666
e 506 675
e 506 680
e 506 682
e 506 684
e 506 702
e 506 713
e 506 740
e 506 746
e 507 548
e 507 592
e 507 605
e 507 621
e 507 696
e 507 746
e 508 513
e 508 516
e 508 568
e 508 599
e 508 618
e 508 645
e 508 648
e 508 700
e 508 707
e 508 720
e 508 725
e 508 732
e 509 510
e 509 511
e 509 512
e 509 513
e 509 515
e 509 568
e 509 578
e 509 599
e 509 615
e 509 617
e 509 621
e 509 651
e 509 662
e 509 663
e 509 696
e 509 707
e 509 731
e 509 773
e 510 511
e 510 512
e 510 513
e 510 515
e 510 568
e 510 578
e 510 599
e 510 615
e 510 617
e 510 621
e 510 651
e 510 662
e 510 663
e 510 696
e 510 707
e 510 731
e 510 773
e 511 512
e 511 513
e 511 515
e 511 568
e 511 578
e 511 599
e 511 615
e 511 617
e 511 621
e 511 651
e 511 662
e 511 663
e 511 696
e 511 707
e 511 731
e 511 773
e 512 513
e 512 515
e 512 568
e 512 578
e 512 599
e 512 615
e 512 617
e 512 621
e 512 651
e 512 662
e 512 663
e 512 696
e 512 707
e 512 731
e 512 773
e 513 514
e 513 515
e 513 516
e 513 517
e 513 518
e 513 519
e 513 521
e 513 523
e 513 524
e 513 526
e 513 527
e 513 528
e 513 529
e 513 530
e 513 537
e 513 538
e 513 539
e 513 540
e 513 543
e 513 544
e 513 545
e 513 546
e 513 547
e 513 548
e 513 549
e 513 551
e 513 552
e 513 553
e 513 558
e 513 559
e 513 560
e 513 562
e 513 563
e 513 565
e 513 566
e 513 568
e 513 570
e 513 571
e 513 572
e 513 574
e 513 577
e 513 578
e 513 579
e 513 580
e 513 581
e 513 582
e 513 583
e 513 584
e 513 585
e 513 587
e 513 588
e 513 589
e 513 590
e 513 591
e 513 592
e 513 593
e 513 594
e 513 595
e 513 596
e 513 599
e 513 602
e 513 604
e 513 607
e 513 608
e 513 610
e 513 611
e 513 612
e 513 613
e 513 614
e 513 615
e 513 616
e 513 617
e 513 618
e 513 619
e 513 620
e 513 621
e 513 622
e 513 623
e 513 624
e 513 625
e 513 626
e 513 629
e 513 632
e 513 633
e 513 635
e 513 636
e 513 637
e 513 638
e 513 639
e 513 640
e 513 641
e 513 642
e 513 643
e 513 644
e 513 645
e 513 646
e 513 647
e 513 648
e 513 649
e 513 651
e 513 652
e 513 653
e 513 654
e 513 657
e 513 658
e 513 659
e 513 660
e 513 661
e 513 662
e 513 663
e 513 664
e 513 665
e 513 666
e 513 669
e 513 670
e 513 671
e 513 672
e 513 674
e 513 675
e 513 676
e 513 677
e 513 678
e 513 679
e 513 680
e 513 681
e 513 682
e 513 683
e 513 684
e 513 685
e 513 686
e 513 687
e 513 689
e 513 690
e 513 691
e 513 692
e 513 693
e 513 694
e 513 695
e 513 696
e 513 697
e 513 699
e 513 700
e 513 701
e 513 703
e 513 704
e 513 705
e 513 706
e 513 707
e 513 708
e 513 709
e 513 710
e 513 713
e 513 714
e 513 715
e 513 716
e 513 718
e 513 719
e 513 720
e 513 722
e 513 724
e 513 725
e 513 726
e 513 727
e 513 728
e 513 729
e 513 730
e 513 731
e 513 732
e 513 733
e 513 734
e 513 735
e 513 736
e 513 737
e 513 738
e 513 739
e 513 740
e 513 741
e 513 742
e 513 743
e 513 744
e 513 745
e 513 746
e 513 747
e 513 748
e 513 749
e 513 750
e 513 751
e 513 752
e 513 753
e 513 754
e 513 755
e 513 756
e 513 757
e 513 758
e 513 759
e 513 760
e 513 761
e 513 762
e 513 763
e 513 764
e 513 765
e 513 766
e 513 767
e 513 768
e 513 769
e 513 770
e 513 771
e 513 772
e 513 773
e 513 775
e 513 776
e 513 777
e 513 778
e 514 515
e 514 516
e 514 519
e 514 520
e 514 525
e 514 527
e 514 530
e 514 536
e 514 537
e 514 538
e 514 545
e 514 546
e 514 548
e 514 551
e 514 552
e 514 554
e 514 555
e 514 558
e 514 562
e 514 563
e 514 564
e 514 565
e 514 568
e 514 570
e 514 571
e 514 577
e 514 578
e 514 581
e 514 582
e 514 583
e 514 587
e 514 590
e 514 593
e 514 595
e 514 596
e 514 599
e 514 601
e 514 607
e 514 608
e 514 609
e 514 612
e 514 614
e 514 615
e 514 616
e 514 621
e 514 622
e 514 623
e 514 624
e 514 625
e 514 626
e 514 633
e 514 636
e 514 639
e 514 640
e 514 642
e 514 644
e 514 646
e 514 647
e 514 648
e 514 650
e 514 651
e 514 652
e 514 653
e 514 654
e 514 656
e 514 657
e 514 658
e 514 659
e 514 661
e 514 662
e 514 663
e 514 664
e 514 665
e 514 666
e 514 667
e 514 668
e 514 670
e 514 671
e 514 672
e 514 675
e 514 676
e 514 679
e 514 680
e 514 681
e 514 682
e 514 684
e 514 687
e 514 690
e 514 691
e 514 692
e 514 695
e 514 696
e 514 698
e 514 707
e 514 711
e 514 712
e 514 713
e 514 714
e 514 715
e 514 716
e 514 718
e 514 719
e 514 723
e 514 731
e 514 733
e 514 734
e 514 735
e 514 736
e 514 738
e 514 741
e 514 742
e 514 743
e 514 745
e 514 747
e 514 748
e 514 749
e 514 752
e 514 754
e 514 755
e 514 756
e 514 757
e 514 758
e 514 759
e 514 760
e 514 761
e 514 762
e 514 763
e 514 764
e 514 765
e 514 769
e 514 770
e 514 773
e 514 775
e 514 777
e 514 778
e 515 516
e 515 518
e 515 519
e 515 521
e 515 522
e 515 523
e 515 524
e 515 526
e 515 530
e 515 535
e 515 537
e 515 538
e 515 539
e 515 545
e 515 551
e 515 552
e 515 557
e 515 560
e 515 562
e 515 565
e 515 568
e 515 570
e 515 578
e 515 579
e 515 580
e 515 581
e 515 582
e 515 583
e 515 584
e 515 590
e 515 591
e 515 593
e 515 596
e 515 599
e 515 603
e 515 605
e 515 607
e 515 608
e 515 610
e 515 612
e 515 614
e 515 615
e 515 616
e 515 617
e 515 618
e 515 619
e 515 620
e 515 621
e 515 622
e 515 623
e 515 624
e 515 626
e 515 627
e 515 633
e 515 636
e 515 639
e 515 640
e 515 641
e 515 642
e 515 644
e 515 645
e 515 646
e 515 647
e 515 648
e 515 649
e 515 651
e 515 652
e 515 654
e 515 659
e 515 660
e 515 662
e 515 663
e 515 664
e 515 665
e 515 666
e 515 669
e 515 670
e 515 671
e 515 672
e 515 673
e 515 675
e 515 678
e 515 680
e 515 681
e 515 682
e 515 683
e 515 684
e 515 685
e 515 686
e 515 687
e 515 688
e 515 689
e 515 690
e 515 691
e 515 692
e 515 694
e 515 695
e 515 696
e 515 697
e 515 700
e 515 702
e 515 707
e 515 709
e 515 710
e 515 712
e 515 713
e 515 714
e 515 715
e 515 716
e 515 717
e 515 718
e 515 720
e 515 722
e 515 725
e 515 726
e 515 730
e 515 731
e 515 732
e 515 733
e 515 734
e 515 736
e 515 738
e 515 739
e 515 740
e 515 741
e 515 743
e 515 745
e 515 746
e 515 749
e 515 756
e 515 759
e 515 760
e 515 761
e 515 763
e 515 766
e 515 771
e 515 772
e 515 773
e 515 776
e 516 518
e 516 521
e 516 523
e 516 524
e 516 525
e 516 526
e 516 530
e 516 535
e 516 537
e 516 545
e 516 546
e 516 551
e 516 554
e 516 555
e 516 562
e 516 563
e 516 566
e 516 567
e 516 568
e 516 569
e 516 570
e 516 571
e 516 573
e 516 576
e 516 577
e 516 578
e 516 580
e 516 581
e 516 582
e 516 583
e 516 584
e 516 585
e 516 597
e 516 598
e 516 599
e 516 600
e 516 607
e 516 608
e 516 610
e 516 614
e 516 616
e 516 617
e 516 618
e 516 619
e 516 621
e 516 622
e 516 623
e 516 624
e 516 626
e 516 632
e 516 633
e 516 636
e 516 640
e 516 642
e 516 644
e 516 645
e 516 647
e 516 648
e 516 651
e 516 653
e 516 655
e 516 659
e 516 660
e 516 662
e 516 663
e 516 667
e 516 669
e 516 670
e 516 671
e 516 672
e 516 677
e 516 678
e 516 680
e 516 681
e 516 682
e 516 684
e 516 687
e 516 688
e 516 690
e 516 691
e 516 692
e 516 693
e 516 694
e 516 695
e 516 696
e 516 699
e 516 700
e 516 702
e 516 706
e 516 707
e 516 709
e 516 710
e 516 711
e 516 712
e 516 713
e 516 714
e 516 715
e 516 716
e 516 717
e 516 718
e 516 720
e 516 723
e 516 725
e 516 726
e 516 731
e 516 732
e 516 733
e 516 734
e 516 735
e 516 737
e 516 738
e 516 739
e 516 740
e 516 741
e 516 743
e 516 745
e 516 746
e 516 747
e 516 749
e 516 751
e 516 754
e 516 755
e 516 756
e 516 757
e 516 758
e 516 759
e 516 760
e 516 761
e 516 763
e 516 764
e 516 765
e 516 768
e 516 769
e 516 770
e 516 771
e 516 772
e 516 773
e 516 776
e 516 777
e 516 778
e 517 546
e 517 551
e 517 552
e 517 577
e 517 581
e 517 601
e 517 618
e 517 620
e 517 648
e 517 662
e 517 676
e 517 678
e 517 682
e 517 697
e 517 714
e 517 716
e 517 730
e 517 739
e 517 758
e 517 763
e 517 764
e 517 766
e 518 519
e 518 546
e 518 570
e 518 579
e 518 591
e 518 607
e 518 640
e 518 646
e 518 648
e 518 666
e 518 675
e 518 681
e 518 684
e 518 685
e 518 690
e 518 696
e 518 702
e 518 709
e 518 710
e 518 717
e 518 718
e 518 740
e 518 746
e 518 759
e 519 545
e 519 551
e 519 552
e 519 565
e 519 570
e 519 579
e 519 591
e 519 593
e 519 607
e 519 626
e 519 640
e 519 646
e 519 665
e 519 666
e 519 675
e 519 682
e 519 684
e 519 685
e 519 690
e 519 709
e 519 710
e 519 746
e 519 759
e 520 590
e 520 621
e 520 625
e 520 626
e 520 646
e 520 663
e 520 691
e 520 696
e 520 761
e 520 769
e 520 777
e 521 522
e 521 530
e 521 537
e 521 551
e 521 560
e 521 571
e 521 578
e 521 580
e 521 581
e 521 582
e 521 583
e 521 590
e 521 603
e 521 607
e 521 610
e 521 618
e 521 623
e 521 636
e 521 648
e 521 651
e 521 654
e 521 663
e 521 673
e 521 678
e 521 697
e 521 716
e 521 730
e 521 731
e 521 739
e 521 766
e 521 772
e 522 530
e 522 551
e 522 590
e 522 603
e 522 654
e 522 673
e 523 524
e 523 525
e 523 526
e 523 537
e 523 571
e 523 614
e 523 623
e 523 636
e 523 651
e 523 681
e 523 696
e 523 713
e 523 731
e 523 734
e 523 749
e 523 756
e 524 526
e 524 551
e 524 583
e 524 614
e 524 623
e 524 681
e 524 713
e 524 734
e 524 749
e 525 526
e 525 530
e 525 537
e 525 562
e 525 571
e 525 581
e 525 616
e 525 623
e 525 626
e 525 636
e 525 651
e 525 681
e 525 682
e 525 687
e 525 696
e 525 731
e 525 734
e 525 745
e 525 749
e 525 756
e 525 757
e 525 760
e 526 537
e 526 571
e 526 614
e 526 623
e 526 636
e 526 651
e 526 681
e 526 696
e 526 713
e 526 731
e 526 734
e 526 749
e 526 756
e 527 583
e 527 587
e 527 590
e 527 621
e 527 625
e 527 626
e 527 663
e 527 681
e 527 684
e 527 691
e 527 696
e 527 707
e 527 761
e 527 765
e 527 777
e 528 537
e 528 570
e 528 571
e 528 578
e 528 580
e 528 647
e 528 651
e 528 681
e 528 696
e 528 699
e 528 706
e 529 571
e 529 592
e 529 593
e 529 595
e 529 626
e 529 633
e 529 651
e 529 659
e 529 661
e 529 679
e 529 682
e 529 684
e 529 695
e 529 700
e 529 720
e 529 741
e 529 743
e 530 535
e 530 537
e 530 539
e 530 541
e 530 542
e 530 543
e 530 545
e 530 546
e 530 547
e 530 549
e 530 551
e 530 553
e 530 556
e 530 558
e 530 562
e 530 563
e 530 570
e 530 571
e 530 577
e 530 579
e 530 581
e 530 583
e 530 588
e 530 589
e 530 590
e 530 593
e 530 594
e 530 596
e 530 599
e 530 603
e 530 604
e 530 607
e 530 609
e 530 611
e 530 612
e 530 614
e 530 615
e 530 616
e 530 618
e 530 620
e 530 622
e 530 623
e 530 625
e 530 626
e 530 628
e 530 629
e 530 630
e 530 631
e 530 633
e 530 634
e 530 635
e 530 636
e 530 638
e 530 639
e 530 640
e 530 641
e 530 642
e 530 644
e 530 646
e 530 647
e 530 648
e 530 649
e 530 651
e 530 652
e 530 653
e 530 654
e 530 656
e 530 657
e 530 658
e 530 659
e 530 661
e 530 662
e 530 664
e 530 667
e 530 668
e 530 670
e 530 671
e 530 673
e 530 674
e 530 675
e 530 677
e 530 678
e 530 679
e 530 680
e 530 681
e 530 682
e 530 684
e 530 686
e 530 687
e 530 690
e 530 691
e 530 693
e 530 694
e 530 695
e 530 696
e 530 701
e 530 703
e 530 706
e 530 707
e 530 708
e 530 710
e 530 711
e 530 713
e 530 714
e 530 715
e 530 716
e 530 717
e 530 718
e 530 719
e 530 721
e 530 724
e 530 727
e 530 728
e 530 729
e 530 731
e 530 733
e 530 734
e 530 736
e 530 737
e 530 738
e 530 741
e 530 742
e 530 743
e 530 744
e 530 745
e 530 746
e 530 747
e 530 748
e 530 749
e 530 750
e 530 752
e 530 753
e 530 754
e 530 755
e 530 756
e 530 757
e 530 758
e 530 759
e 530 760
e 530 761
e 530 762
e 530 764
e 530 765
e 530 766
e 530 767
e 530 768
e 530 769
e 530 770
e 530 773
e 530 775
e 530 776
e 530 777
e 530 778
e 531 532
e 531 533
e 531 534
e 531 537
e 531 552
e 531 571
e 531 577
e 531 626
e 531 632
e 531 651
e 531 665
e 531 701
e 531 734
e 531 741
e 531 743
e 531 749
e 532 533
e 532 534
e 532 537
e 532 552
e 532 571
e 532 577
e 532 626
e 532 632
e 532 651
e 532 665
e 532 701
e 532 734
e 532 741
e 532 743
e 532 749
e 533 534
e 533 537
e 533 552
e 533 571
e 533 577
e 533 626
e 533 632
e 533 651
e 533 665
e 533 701
e 533 734
e 533 741
e 533 743
e 533 749
e 534 537
e 534 552
e 534 571
e 534 577
e 534 626
e 534 632
e 534 651
e 534 665
e 534 701
e 534 734
e 534 741
e 534 743
e 534 749
e 535 581
e 535 622
e 535 633
e 535 640
e 535 659
e 535 671
e 535 681
e 535 713
e 535 717
e 535 718
e 535 741
e 535 745
e 535 756
e 535 760
e 536 537
e 536 545
e 536 552
e 536 577
e 536 581
e 536 601
e 536 650
e 536 662
e 536 675
e 536 676
e 536 682
e 536 684
e 536 714
e 536 734
e 536 752
e 536 757
e 536 758
e 536 763
e 536 764
e 536 773
e 537 538
e 537 539
e 537 545
e 537 546
e 537 551
e 537 552
e 537 562
e 537 568
e 537 570
e 537 571
e 537 575
e 537 577
e 537 578
e 537 580
e 537 581
e 537 582
e 537 583
e 537 584
e 537 593
e 537 595
e 537 599
e 537 601
e 537 606
e 537 607
e 537 608
e 537 609
e 537 610
e 537 612
e 537 616
e 537 617
e 537 618
e 537 619
e 537 620
e 537 621
e 537 623
e 537 624
e 537 626
e 537 632
e 537 633
e 537 636
e 537 639
e 537 640
e 537 641
e 537 642
e 537 644
e 537 645
e 537 647
e 537 650
e 537 651
e 537 654
e 537 656
e 537 657
e 537 659
e 537 661
e 537 662
e 537 663
e 537 665
e 537 668
e 537 670
e 537 672
e 537 675
e 537 676
e 537 679
e 537 680
e 537 681
e 537 682
e 537 684
e 537 686
e 537 687
e 537 688
e 537 691
e 537 695
e 537 696
e 537 698
e 537 699
e 537 701
e 537 703
e 537 706
e 537 707
e 537 710
e 537 711
e 537 714
e 537 715
e 537 716
e 537 718
e 537 721
e 537 723
e 537 731
e 537 732
e 537 734
e 537 735
e 537 736
e 537 738
e 537 739
e 537 741
e 537 743
e 537 745
e 537 748
e 537 749
e 537 752
e 537 754
e 537 756
e 537 757
e 537 758
e 537 759
e 537 760
e 537 761
e 537 763
e 537 764
e 537 770
e 537 771
e 537 772
e 537 773
e 537 777
e 537 778
e 538 582
e 538 607
e 538 608
e 538 616
e 538 624
e 538 633
e 538 647
e 538 651
e 538 670
e 538 672
e 538 687
e 538 736
e 538 738
e 538 745
e 539 599
e 539 607
e 539 612
e 539 620
e 539 639
e 539 641
e 539 642
e 539 644
e 539 647
e 539 654
e 539 670
e 539 684
e 539 686
e 539 691
e 539 696
e 539 707
e 539 731
e 539 745
e 540 581
e 540 593
e 540 640
e 540 643
e 540 651
e 540 658
e 540 671
e 540 681
e 540 684
e 540 705
e 540 736
e 540 747
e 540 748
e 540 753
e 540 754
e 541 542
e 541 590
e 541 603
e 541 607
e 541 628
e 541 630
e 541 631
e 541 634
e 541 647
e 541 651
e 541 673
e 541 681
e 541 686
e 541 691
e 541 731
e 541 745
e 541 750
e 541 769
e 542 590
e 542 603
e 542 607
e 542 628
e 542 630
e 542 631
e 542 634
e 542 647
e 542 651
e 542 673
e 542 681
e 542 686
e 542 691
e 542 731
e 542 745
e 542 750
e 542 769
e 543 546
e 543 551
e 543 577
e 543 599
e 543 620
e 543 623
e 543 629
e 543 648
e 543 662
e 543 682
e 543 684
e 543 708
e 543 724
e 543 734
e 543 747
e 543 753
e 543 766
e 543 778
e 544 559
e 544 563
e 544 570
e 544 581
e 544 589
e 544 599
e 544 606
e 544 607
e 544 613
e 544 622
e 544 623
e 544 637
e 544 646
e 544 648
e 544 658
e 544 666
e 544 684
e 544 689
e 544 694
e 544 698
e 544 714
e 544 726
e 544 767
e 544 771
e 545 546
e 545 548
e 545 551
e 545 552
e 545 553
e 545 554
e 545 555
e 545 558
e 545 562
e 545 563
e 545 564
e 545 565
e 545 566
e 545 568
e 545 570
e 545 571
e 545 577
e 545 578
e 545 581
e 545 583
e 545 584
e 545 585
e 545 587
e 545 593
e 545 595
e 545 596
e 545 599
e 545 601
e 545 604
e 545 607
e 545 609
e 545 618
e 545 619
e 545 621
e 545 622
e 545 623
e 545 626
e 545 633
e 545 640
e 545 642
e 545 643
e 545 644
e 545 646
e 545 648
e 545 650
e 545 651
e 545 652
e 545 653
e 545 656
e 545 657
e 545 659
e 545 660
e 545 661
e 545 662
e 545 664
e 545 665
e 545 666
e 545 667
e 545 668
e 545 669
e 545 675
e 545 676
e 545 677
e 545 678
e 545 679
e 545 680
e 545 682
e 545 684
e 545 690
e 545 695
e 545 696
e 545 700
e 545 701
e 545 702
e 545 703
e 545 707
e 545 711
e 545 713
e 545 714
e 545 715
e 545 716
e 545 718
e 545 719
e 545 720
e 545 727
e 545 728
e 545 729
e 545 731
e 545 732
e 545 733
e 545 734
e 545 738
e 545 740
e 545 741
e 545 743
e 545 744
e 545 746
e 545 747
e 545 748
e 545 749
e 545 751
e 545 752
e 545 754
e 545 755
e 545 756
e 545 757
e 545 758
e 545 759
e 545 761
e 545 762
e 545 763
e 545 764
e 545 765
e 545 767
e 545 768
e 545 769
e 545 770
e 545 771
e 545 772
e 545 773
e 545 775
e 545 776
e 545 777
e 545 778
e 546 548
e 546 551
e 546 563
e 546 568
e 546 570
e 546 575
e 546 577
e 546 579
e 546 581
e 546 583
e 546 593
e 546 599
e 546 606
e 546 607
e 546 618
e 546 620
e 546 621
e 546 622
e 546 623
e 546 626
e 546 629
e 546 638
e 546 640
e 546 646
e 546 648
e 546 653
e 546 662
e 546 672
e 546 678
e 546 679
e 546 681
e 546 682
e 546 684
e 546 687
e 546 690
e 546 691
e 546 696
e 546 697
e 546 698
e 546 702
e 546 703
e 546 704
e 546 708
e 546 709
e 546 710
e 546 715
e 546 716
e 546 717
e 546 718
e 546 721
e 546 723
e 546 724
e 546 730
e 546 731
e 546 733
e 546 734
e 546 735
e 546 738
e 546 739
e 546 740
e 546 742
e 546 744
e 546 747
e 546 752
e 546 753
e 546 755
e 546 759
e 546 760
e 546 762
e 546 763
e 546 764
e 546 766
e 546 769
e 546 770
e 546 771
e 546 773
e 546 777
e 546 778
e 547 551
e 547 552
e 547 558
e 547 564
e 547 565
e 547 571
e 547 579
e 547 581
e 547 594
e 547 599
e 547 627
e 547 646
e 547 648
e 547 649
e 547 652
e 547 656
e 547 658
e 547 665
e 547 680
e 547 684
e 547 714
e 547 715
e 547 731
e 547 761
e 548 551
e 548 568
e 548 592
e 548 593
e 548 605
e 548 621
e 548 626
e 548 648
e 548 684
e 548 696
e 548 746
e 549 551
e 549 571
e 549 589
e 549 594
e 549 599
e 549 615
e 549 622
e 549 626
e 549 646
e 549 648
e 549 649
e 549 652
e 549 658
e 549 684
e 549 694
e 549 714
e 549 715
e 549 761
e 549 776
e 550 570
e 550 651
e 550 684
e 550 699
e 551 552
e 551 553
e 551 554
e 551 555
e 551 558
e 551 565
e 551 566
e 551 568
e 551 570
e 551 571
e 551 577
e 551 578
e 551 582
e 551 583
e 551 589
e 551 590
e 551 593
e 551 594
e 551 596
e 551 599
e 551 603
e 551 604
e 551 607
e 551 610
e 551 613
e 551 614
e 551 615
e 551 616
e 551 618
e 551 620
e 551 621
e 551 622
e 551 623
e 551 624
e 551 626
e 551 627
e 551 629
e 551 632
e 551 636
e 551 638
e 551 640
e 551 642
e 551 644
e 551 646
e 551 648
e 551 649
e 551 651
e 551 652
e 551 654
e 551 655
e 551 657
e 551 658
e 551 662
e 551 663
e 551 664
e 551 665
e 551 666
e 551 667
e 551 669
e 551 673
e 551 675
e 551 677
e 551 678
e 551 679
e 551 680
e 551 681
e 551 682
e 551 683
e 551 684
e 551 685
e 551 690
e 551 693
e 551 694
e 551 696
e 551 697
e 551 702
e 551 704
e 551 705
e 551 708
e 551 711
e 551 713
e 551 714
e 551 715
e 551 716
e 551 718
e 551 719
e 551 721
e 551 724
e 551 730
e 551 731
e 551 733
e 551 734
e 551 739
e 551 740
e 551 746
e 551 747
e 551 748
e 551 751
e 551 753
e 551 755
e 551 756
e 551 759
e 551 761
e 551 762
e 551 765
e 551 766
e 551 768
e 551 769
e 551 772
e 551 775
e 551 776
e 551 778
e 552 558
e 552 563
e 552 564
e 552 565
e 552 568
e 552 571
e 552 572
e 552 574
e 552 577
e 552 579
e 552 580
e 552 581
e 552 593
e 552 596
e 552 601
e 552 607
e 552 626
e 552 627
e 552 632
e 552 637
e 552 642
e 552 646
e 552 648
e 552 650
e 552 651
e 552 652
e 552 656
e 552 657
e 552 658
e 552 662
e 552 664
e 552 665
e 552 666
e 552 675
e 552 676
e 552 680
e 552 682
e 552 684
e 552 690
e 552 701
e 552 702
e 552 713
e 552 714
e 552 734
e 552 740
e 552 741
e 552 743
e 552 746
e 552 749
e 552 752
e 552 757
e 552 758
e 552 763
e 552 764
e 552 767
e 552 773
e 553 604
e 553 644
e 553 648
e 553 684
e 553 718
e 553 719
e 553 734
e 553 755
e 553 756
e 553 762
e 553 775
e 554 555
e 554 570
e 554 571
e 554 667
e 554 711
e 554 715
e 554 716
e 554 759
e 554 765
e 554 769
e 555 570
e 555 571
e 555 667
e 555 711
e 555 715
e 555 716
e 555 759
e 555 765
e 555 769
e 556 628
e 556 629
e 556 630
e 556 631
e 556 647
e 556 648
e 556 651
e 556 673
e 556 681
e 556 686
e 556 691
e 556 731
e 556 734
e 556 745
e 556 750
e 556 769
e 557 568
e 557 591
e 557 605
e 557 623
e 557 626
e 557 640
e 557 646
e 557 660
e 557 669
e 557 678
e 557 682
e 557 688
e 557 690
e 557 710
e 557 722
e 557 725
e 557 746
e 557 761
e 557 771
e 557 772
e 557 776
e 558 564
e 558 571
e 558 581
e 558 594
e 558 596
e 558 599
e 558 642
e 558 646
e 558 648
e 558 649
e 558 652
e 558 656
e 558 657
e 558 658
e 558 664
e 558 665
e 558 680
e 558 684
e 558 690
e 558 714
e 558 715
e 558 731
e 558 761
e 559 563
e 559 570
e 559 581
e 559 599
e 559 606
e 559 607
e 559 613
e 559 622
e 559 623
e 559 637
e 559 646
e 559 649
e 559 658
e 559 666
e 559 684
e 559 689
e 559 694
e 559 698
e 559 709
e 559 714
e 559 722
e 559 726
e 559 761
e 559 767
e 559 771
e 560 607
e 560 618
e 560 648
e 560 678
e 560 697
e 560 716
e 560 730
e 560 739
e 560 766
e 561 590
e 561 620
e 561 634
e 561 638
e 561 691
e 562 570
e 562 571
e 562 577
e 562 581
e 562 582
e 562 597
e 562 598
e 562 599
e 562 600
e 562 608
e 562 611
e 562 616
e 562 622
e 562 623
e 562 626
e 562 636
e 562 644
e 562 648
e 562 651
e 562 655
e 562 657
e 562 662
e 562 670
e 562 672
e 562 675
e 562 679
e 562 680
e 562 682
e 562 684
e 562 687
e 562 690
e 562 692
e 562 693
e 562 696
e 562 703
e 562 714
e 562 716
e 562 718
e 562 719
e 562 727
e 562 728
e 562 729
e 562 731
e 562 734
e 562 737
e 562 738
e 562 745
e 562 751
e 562 754
e 562 756
e 562 757
e 562 760
e 562 765
e 562 767
e 562 768
e 562 775
e 563 568
e 563 570
e 563 571
e 563 572
e 563 574
e 563 577
e 563 580
e 563 581
e 563 583
e 563 587
e 563 593
e 563 599
e 563 606
e 563 607
e 563 613
e 563 622
e 563 623
e 563 637
e 563 640
e 563 643
e 563 646
e 563 651
e 563 658
e 563 666
e 563 676
e 563 679
e 563 681
e 563 682
e 563 684
e 563 690
e 563 691
e 563 694
e 563 698
e 563 701
e 563 714
e 563 715
e 563 716
e 563 721
e 563 726
e 563 731
e 563 732
e 563 733
e 563 734
e 563 735
e 563 741
e 563 743
e 563 744
e 563 749
e 563 751
e 563 752
e 563 754
e 563 760
e 563 761
e 563 763
e 563 764
e 563 765
e 563 767
e 563 770
e 563 771
e 563 773
e 563 776
e 563 777
e 563 778
e 564 565
e 564 571
e 564 579
e 564 581
e 564 596
e 564 627
e 564 642
e 564 646
e 564 648
e 564 652
e 564 656
e 564 657
e 564 658
e 564 664
e 564 665
e 564 680
e 564 684
e 564 690
e 565 571
e 565 579
e 565 581
e 565 593
e 565 596
e 565 626
e 565 627
e 565 646
e 565 648
e 565 656
e 565 658
e 565 665
e 565 666
e 565 675
e 565 680
e 565 682
e 565 684
e 565 702
e 565 713
e 565 740
e 565 746
e 566 571
e 566 578
e 566 626
e 566 642
e 566 677
e 566 682
e 566 696
e 566 714
e 566 740
e 566 746
e 566 755
e 566 756
e 567 569
e 567 570
e 567 571
e 567 573
e 567 576
e 567 577
e 567 581
e 567 632
e 567 680
e 567 684
e 567 694
e 567 726
e 567 734
e 568 570
e 568 571
e 568 572
e 568 574
e 568 577
e 568 578
e 568 580
e 568 581
e 568 583
e 568 584
e 568 585
e 568 591
e 568 593
e 568 599
e 568 605
e 568 607
e 568 615
e 568 617
e 568 618
e 568 619
e 568 621
e 568 622
e 568 623
e 568 624
e 568 626
e 568 637
e 568 640
e 568 643
e 568 645
e 568 646
e 568 648
e 568 649
e 568 651
e 568 652
e 568 653
e 568 660
e 568 662
e 568 663
e 568 666
e 568 669
e 568 672
e 568 675
e 568 676
e 568 678
e 568 680
e 568 681
e 568 682
e 568 683
e 568 684
e 568 685
e 568 687
e 568 688
e 568 689
e 568 690
e 568 691
e 568 692
e 568 694
e 568 696
e 568 700
e 568 701
e 568 704
e 568 707
e 568 709
e 568 710
e 568 712
e 568 713
e 568 714
e 568 715
e 568 716
e 568 720
e 568 722
e 568 725
e 568 726
e 568 731
e 568 732
e 568 733
e 568 735
e 568 738
e 568 741
e 568 742
e 568 743
e 568 744
e 568 746
e 568 749
e 568 751
e 568 754
e 568 756
e 568 761
e 568 762
e 568 763
e 568 765
e 568 767
e 568 769
e 568 770
e 568 771
e 568 772
e 568 773
e 568 776
e 568 777
e 568 778
e 569 570
e 569 571
e 569 573
e 569 576
e 569 577
e 569 581
e 569 632
e 569 680
e 569 684
e 569 694
e 569 726
e 569 734
e 570 571
e 570 573
e 570 575
e 570 576
e 570 577
e 570 578
e 570 579
e 570 580
e 570 581
e 570 583
e 570 589
e 570 591
e 570 593
e 570 597
e 570 598
e 570 599
e 570 600
e 570 606
e 570 607
e 570 613
e 570 616
e 570 622
e 570 623
e 570 626
e 570 632
e 570 637
e 570 640
e 570 642
e 570 644
e 570 646
e 570 647
e 570 648
e 570 651
e 570 655
e 570 658
e 570 659
e 570 660
e 570 666
e 570 667
e 570 669
e 570 675
e 570 677
e 570 678
e 570 679
e 570 680
e 570 681
e 570 683
e 570 684
e 570 685
e 570 689
e 570 690
e 570 691
e 570 693
e 570 694
e 570 696
e 570 698
e 570 699
e 570 702
e 570 703
e 570 706
e 570 709
e 570 710
e 570 711
e 570 714
e 570 715
e 570 716
e 570 717
e 570 718
e 570 721
e 570 722
e 570 723
e 570 725
e 570 726
e 570 731
e 570 734
e 570 735
e 570 737
e 570 738
e 570 740
e 570 746
e 570 748
e 570 751
e 570 752
e 570 754
e 570 755
e 570 757
e 570 758
e 570 759
e 570 760
e 570 761
e 570 763
e 570 764
e 570 765
e 570 767
e 570 768
e 570 769
e 570 770
e 570 771
e 570 772
e 570 776
e 570 777
e 570 778
e 571 572
e 571 573
e 571 574
e 571 576
e 571 577
e 571 578
e 571 579
e 571 580
e 571 581
e 571 582
e 571 583
e 571 589
e 571 592
e 571 593
e 571 594
e 571 595
e 571 596
e 571 597
e 571 598
e 571 599
e 571 600
e 571 607
e 571 609
e 571 610
e 571 614
e 571 615
e 571 616
e 571 622
e 571 623
e 571 626
e 571 627
e 571 632
e 571 633
e 571 636
e 571 637
e 571 640
e 571 642
e 571 644
e 571 646
e 571 647
e 571 648
e 571 649
e 571 651
e 571 652
e 571 655
e 571 656
e 571 657
e 571 658
e 571 659
e 571 661
e 571 663
e 571 664
e 571 665
e 571 667
e 571 668
e 571 676
e 571 677
e 571 679
e 571 680
e 571 681
e 571 682
e 571 684
e 571 687
e 571 690
e 571 692
e 571 693
e 571 694
e 571 695
e 571 696
e 571 699
e 571 700
e 571 701
e 571 702
e 571 706
e 571 711
e 571 712
e 571 714
e 571 715
e 571 716
e 571 717
e 571 718
e 571 720
e 571 723
e 571 726
e 571 731
e 571 734
e 571 737
e 571 739
e 571 740
e 571 741
e 571 743
e 571 745
e 571 746
e 571 748
e 571 749
e 571 751
e 571 755
e 571 756
e 571 757
e 571 758
e 571 759
e 571 760
e 571 761
e 571 765
e 571 767
e 571 768
e 571 769
e 571 772
e 571 776
e 572 574
e 572 577
e 572 580
e 572 607
e 572 637
e 572 651
e 572 676
e 572 701
e 572 714
e 572 741
e 572 743
e 572 749
e 572 767
e 573 576
e 573 577
e 573 581
e 573 632
e 573 680
e 573 684
e 573 694
e 573 726
e 573 734
e 574 577
e 574 580
e 574 607
e 574 637
e 574 651
e 574 676
e 574 701
e 574 714
e 574 741
e 574 743
e 574 749
e 574 767
e 575 577
e 575 581
e 575 583
e 575 599
e 575 606
e 575 626
e 575 698
e 575 703
e 575 718
e 575 723
e 575 734
e 575 738
e 575 760
e 575 770
e 575 771
e 575 777
e 576 577
e 576 581
e 576 632
e 576 680
e 576 684
e 576 694
e 576 726
e 576 734
e 577 580
e 577 581
e 577 583
e 577 593
e 577 597
e 577 598
e 577 599
e 577 600
e 577 601
e 577 606
e 577 607
e 577 618
e 577 620
e 577 622
e 577 623
e 577 626
e 577 629
e 577 632
e 577 637
e 577 638
e 577 640
e 577 644
e 577 648
e 577 650
e 577 651
e 577 653
e 577 655
e 577 662
e 577 665
e 577 667
e 577 672
e 577 675
e 577 676
e 577 679
e 577 680
e 577 681
e 577 682
e 577 684
e 577 687
e 577 690
e 577 692
e 577 693
e 577 694
e 577 698
e 577 701
e 577 702
e 577 703
e 577 704
e 577 706
e 577 708
e 577 711
e 577 712
e 577 714
e 577 716
e 577 718
e 577 721
e 577 723
e 577 724
e 577 726
e 577 734
e 577 737
e 577 738
e 577 741
e 577 742
e 577 743
e 577 744
e 577 747
e 577 748
e 577 749
e 577 751
e 577 752
e 577 753
e 577 757
e 577 758
e 577 759
e 577 760
e 577 762
e 577 763
e 577 764
e 577 765
e 577 766
e 577 767
e 577 768
e 577 769
e 577 770
e 577 771
e 577 773
e 577 777
e 577 778
e 578 580
e 578 582
e 578 583
e 578 599
e 578 610
e 578 615
e 578 617
e 578 621
e 578 623
e 578 626
e 578 636
e 578 642
e 578 647
e 578 651
e 578 659
e 578 662
e 578 663
e 578 677
e 578 681
e 578 682
e 578 696
e 578 699
e 578 706
e 578 707
e 578 714
e 578 731
e 578 734
e 578 735
e 578 739
e 578 740
e 578 746
e 578 754
e 578 755
e 578 756
e 578 758
e 578 760
e 578 763
e 578 764
e 578 772
e 578 773
e 578 777
e 579 581
e 579 591
e 579 593
e 579 607
e 579 627
e 579 640
e 579 646
e 579 648
e 579 656
e 579 658
e 579 665
e 579 666
e 579 675
e 579 680
e 579 681
e 579 684
e 579 685
e 579 690
e 579 696
e 579 709
e 579 710
e 579 717
e 579 718
e 579 746
e 579 755
e 579 759
e 580 581
e 580 607
e 580 610
e 580 618
e 580 637
e 580 647
e 580 648
e 580 651
e 580 676
e 580 678
e 580 680
e 580 681
e 580 696
e 580 697
e 580 699
e 580 701
e 580 706
e 580 714
e 580 716
e 580 730
e 580 739
e 580 741
e 580 743
e 580 749
e 580 757
e 580 766
e 580 767
e 581 583
e 581 588
e 581 593
e 581 596
e 581 599
e 581 601
e 581 604
e 581 606
e 581 607
e 581 610
e 581 612
e 581 613
e 581 616
e 581 618
e 581 622
e 581 623
e 581 624
e 581 626
e 581 627
e 581 632
e 581 633
e 581 635
e 581 636
e 581 637
e 581 640
e 581 642
e 581 643
e 581 644
e 581 646
e 581 648
e 581 650
e 581 651
e 581 652
e 581 654
e 581 656
e 581 657
e 581 658
e 581 659
e 581 662
e 581 664
e 581 665
e 581 666
e 581 671
e 581 674
e 581 675
e 581 676
e 581 677
e 581 678
e 581 679
e 581 680
e 581 681
e 581 682
e 581 684
e 581 687
e 581 690
e 581 691
e 581 692
e 581 693
e 581 694
e 581 696
e 581 697
e 581 698
e 581 702
e 581 703
e 581 705
e 581 706
e 581 707
e 581 708
e 581 711
e 581 712
e 581 713
e 581 714
e 581 715
e 581 716
e 581 717
e 581 718
e 581 721
e 581 723
e 581 724
e 581 726
e 581 730
e 581 731
e 581 733
e 581 734
e 581 735
e 581 736
e 581 738
e 581 739
e 581 741
e 581 742
e 581 744
e 581 745
e 581 746
e 581 747
e 581 748
e 581 750
e 581 752
e 581 753
e 581 754
e 581 755
e 581 756
e 581 757
e 581 758
e 581 760
e 581 761
e 581 762
e 581 763
e 581 764
e 581 766
e 581 767
e 581 770
e 581 771
e 581 773
e 581 775
e 581 777
e 581 778
e 582 583
e 582 599
e 582 607
e 582 608
e 582 610
e 582 615
e 582 616
e 582 617
e 582 621
e 582 623
e 582 624
e 582 633
e 582 636
e 582 639
e 582 642
e 582 644
e 582 647
e 582 651
e 582 663
e 582 670
e 582 672
e 582 680
e 582 681
e 582 682
e 582 684
e 582 687
e 582 692
e 582 696
e 582 731
e 582 732
e 582 736
e 582 738
e 582 739
e 582 741
e 582 742
e 582 745
e 582 772
e 582 773
e 583 587
e 583 590
e 583 599
e 583 606
e 583 607
e 583 610
e 583 614
e 583 621
e 583 622
e 583 623
e 583 625
e 583 626
e 583 636
e 583 640
e 583 651
e 583 663
e 583 679
e 583 681
e 583 682
e 583 684
e 583 690
e 583 691
e 583 696
e 583 698
e 583 703
e 583 707
e 583 715
e 583 716
e 583 718
e 583 721
e 583 723
e 583 731
e 583 732
e 583 733
e 583 734
e 583 735
e 583 738
e 583 739
e 583 741
e 583 744
e 583 752
e 583 754
e 583 760
e 583 761
e 583 763
e 583 764
e 583 765
e 583 770
e 583 771
e 583 772
e 583 773
e 583 776
e 583 777
e 583 778
e 584 599
e 584 617
e 584 618
e 584 621
e 584 640
e 584 648
e 584 669
e 584 678
e 584 682
e 584 690
e 584 696
e 584 700
e 584 707
e 584 720
e 584 732
e 584 741
e 584 761
e 584 771
e 584 772
e 584 776
e 585 599
e 585 618
e 585 619
e 585 648
e 585 662
e 585 678
e 585 682
e 585 690
e 585 707
e 585 720
e 585 761
e 585 772
e 585 776
e 586 640
e 586 641
e 587 590
e 587 599
e 587 607
e 587 621
e 587 625
e 587 626
e 587 663
e 587 681
e 587 682
e 587 684
e 587 690
e 587 691
e 587 696
e 587 707
e 587 716
e 587 732
e 587 741
e 587 744
e 587 754
e 587 761
e 587 765
e 587 776
e 587 777
e 588 635
e 588 644
e 588 648
e 588 662
e 588 674
e 588 681
e 588 707
e 588 708
e 588 724
e 588 734
e 588 736
e 588 738
e 588 742
e 588 744
e 588 750
e 588 754
e 588 762
e 589 594
e 589 599
e 589 613
e 589 615
e 589 622
e 589 626
e 589 637
e 589 646
e 589 648
e 589 649
e 589 652
e 589 658
e 589 684
e 589 689
e 589 694
e 589 714
e 589 715
e 589 761
e 589 776
e 590 603
e 590 607
e 590 620
e 590 621
e 590 625
e 590 626
e 590 628
e 590 630
e 590 631
e 590 634
e 590 638
e 590 646
e 590 647
e 590 651
e 590 654
e 590 663
e 590 673
e 590 681
e 590 684
e 590 686
e 590 691
e 590 696
e 590 707
e 590 731
e 590 745
e 590 750
e 590 761
e 590 765
e 590 769
e 590 777
e 591 605
e 591 607
e 591 623
e 591 626
e 591 640
e 591 646
e 591 660
e 591 666
e 591 669
e 591 675
e 591 678
e 591 682
e 591 684
e 591 685
e 591 688
e 591 690
e 591 709
e 591 710
e 591 722
e 591 725
e 591 746
e 591 759
e 591 761
e 591 771
e 591 772
e 591 776
e 592 593
e 592 595
e 592 605
e 592 621
e 592 626
e 592 633
e 592 651
e 592 659
e 592 661
e 592 679
e 592 682
e 592 684
e 592 695
e 592 696
e 592 700
e 592 720
e 592 741
e 592 743
e 592 746
e 593 595
e 593 599
e 593 607
e 593 609
e 593 614
e 593 621
e 593 623
e 593 626
e 593 633
e 593 640
e 593 643
e 593 648
e 593 651
e 593 656
e 593 657
e 593 658
e 593 659
e 593 661
e 593 665
e 593 666
e 593 668
e 593 671
e 593 675
e 593 679
e 593 680
e 593 681
e 593 682
e 593 684
e 593 690
e 593 695
e 593 696
e 593 700
e 593 701
e 593 705
e 593 710
e 593 711
e 593 714
e 593 717
e 593 718
e 593 720
e 593 721
e 593 731
e 593 733
e 593 734
e 593 736
e 593 741
e 593 743
e 593 744
e 593 747
e 593 748
e 593 749
e 593 751
e 593 753
e 593 754
e 593 755
e 593 759
e 593 761
e 593 765
e 593 770
e 593 777
e 593 778
e 594 599
e 594 613
e 594 615
e 594 622
e 594 626
e 594 646
e 594 648
e 594 649
e 594 652
e 594 658
e 594 669
e 594 683
e 594 684
e 594 685
e 594 694
e 594 714
e 594 715
e 594 731
e 594 761
e 594 776
e 595 609
e 595 626
e 595 633
e 595 651
e 595 659
e 595 661
e 595 679
e 595 682
e 595 684
e 595 695
e 595 700
e 595 720
e 595 741
e 595 743
e 596 599
e 596 626
e 596 642
e 596 646
e 596 652
e 596 656
e 596 657
e 596 664
e 596 665
e 596 680
e 596 682
e 596 684
e 596 690
e 596 702
e 596 713
e 596 714
e 596 715
e 596 731
e 596 740
e 596 746
e 596 761
e 597 598
e 597 599
e 597 600
e 597 626
e 597 644
e 597 655
e 597 690
e 597 693
e 597 714
e 597 737
e 597 751
e 597 765
e 597 768
e 598 599
e 598 600
e 598 626
e 598 644
e 598 655
e 598 690
e 598 693
e 598 714
e 598 737
e 598 751
e 598 765
e 598 768
e 599 600
e 599 606
e 599 607
e 599 609
e 599 612
e 599 613
e 599 614
e 599 615
e 599 616
e 599 617
e 599 618
e 599 619
e 599 620
e 599 621
e 599 622
e 599 623
e 599 626
e 599 629
e 599 632
e 599 633
e 599 635
e 599 637
e 599 638
e 599 639
e 599 640
e 599 641
e 599 642
e 599 643
e 599 644
e 599 645
e 599 646
e 599 647
e 599 648
e 599 649
e 599 651
e 599 652
e 599 653
e 599 654
e 599 655
e 599 657
e 599 658
e 599 659
e 599 661
e 599 662
e 599 663
e 599 664
e 599 666
e 599 667
e 599 668
e 599 670
e 599 671
e 599 672
e 599 674
e 599 675
e 599 677
e 599 678
e 599 679
e 599 681
e 599 682
e 599 684
e 599 686
e 599 687
e 599 688
e 599 690
e 599 691
e 599 693
e 599 694
e 599 696
e 599 698
e 599 700
e 599 703
e 599 704
e 599 705
e 599 707
e 599 708
e 599 710
e 599 711
e 599 714
e 599 715
e 599 716
e 599 718
e 599 719
e 599 720
e 599 721
e 599 723
e 599 724
e 599 725
e 599 726
e 599 727
e 599 728
e 599 729
e 599 731
e 599 732
e 599 733
e 599 734
e 599 736
e 599 737
e 599 738
e 599 741
e 599 742
e 599 744
e 599 745
e 599 747
e 599 748
e 599 749
e 599 750
e 599 751
e 599 752
e 599 753
e 599 754
e 599 755
e 599 756
e 599 759
e 599 760
e 599 761
e 599 762
e 599 765
e 599 766
e 599 767
e 599 768
e 599 769
e 599 770
e 599 771
e 599 772
e 599 773
e 599 775
e 599 776
e 599 777
e 599 778
e 600 626
e 600 644
e 600 655
e 600 690
e 600 693
e 600 714
e 600 737
e 600 751
e 600 765
e 600 768
e 601 650
e 601 662
e 601 675
e 601 676
e 601 682
e 601 684
e 601 714
e 601 734
e 601 752
e 601 757
e 601 758
e 601 763
e 601 764
e 601 773
e 602 615
e 602 616
e 602 704
e 602 705
e 602 715
e 602 740
e 602 748
e 602 751
e 602 753
e 603 607
e 603 628
e 603 630
e 603 631
e 603 634
e 603 647
e 603 651
e 603 654
e 603 673
e 603 681
e 603 686
e 603 691
e 603 731
e 603 745
e 603 750
e 603 769
e 604 644
e 604 648
e 604 662
e 604 674
e 604 681
e 604 684
e 604 693
e 604 707
e 604 708
e 604 718
e 604 719
e 604 734
e 604 742
e 604 750
e 604 754
e 604 755
e 604 756
e 604 762
e 604 775
e 605 621
e 605 623
e 605 626
e 605 640
e 605 646
e 605 660
e 605 669
e 605 678
e 605 682
e 605 688
e 605 690
e 605 696
e 605 710
e 605 722
e 605 725
e 605 746
e 605 761
e 605 771
e 605 772
e 605 776
e 606 607
e 606 613
e 606 622
e 606 623
e 606 626
e 606 637
e 606 646
e 606 658
e 606 666
e 606 684
e 606 694
e 606 698
e 606 703
e 606 714
e 606 718
e 606 723
e 606 726
e 606 734
e 606 738
e 606 760
e 606 767
e 606 770
e 606 771
e 606 777
e 607 608
e 607 610
e 607 612
e 607 613
e 607 616
e 607 618
e 607 620
e 607 622
e 607 623
e 607 624
e 607 626
e 607 628
e 607 630
e 607 631
e 607 633
e 607 634
e 607 637
e 607 638
e 607 639
e 607 640
e 607 641
e 607 642
e 607 643
e 607 644
e 607 646
e 607 647
e 607 648
e 607 649
e 607 651
e 607 652
e 607 653
e 607 654
e 607 658
e 607 660
e 607 662
e 607 666
e 607 667
e 607 669
e 607 670
e 607 672
e 607 673
e 607 675
e 607 676
e 607 678
e 607 679
e 607 681
e 607 682
e 607 683
e 607 684
e 607 685
e 607 686
e 607 687
e 607 689
e 607 690
e 607 691
e 607 694
e 607 696
e 607 697
e 607 698
e 607 701
e 607 707
e 607 709
e 607 710
e 607 711
e 607 714
e 607 715
e 607 716
e 607 721
e 607 722
e 607 724
e 607 725
e 607 726
e 607 730
e 607 731
e 607 732
e 607 733
e 607 734
e 607 736
e 607 738
e 607 739
e 607 741
e 607 743
e 607 744
e 607 745
e 607 746
e 607 747
e 607 748
e 607 749
e 607 750
e 607 751
e 607 752
e 607 753
e 607 754
e 607 757
e 607 759
e 607 761
e 607 763
e 607 764
e 607 765
e 607 766
e 607 767
e 607 769
e 607 770
e 607 771
e 607 772
e 607 776
e 607 777
e 607 778
e 608 616
e 608 624
e 608 633
e 608 636
e 608 647
e 608 651
e 608 670
e 608 672
e 608 680
e 608 682
e 608 687
e 608 692
e 608 736
e 608 738
e 608 745
e 609 614
e 609 626
e 609 633
e 609 651
e 609 659
e 609 661
e 609 668
e 609 679
e 609 682
e 609 695
e 609 696
e 609 731
e 609 734
e 609 741
e 609 743
e 609 749
e 610 618
e 610 623
e 610 636
e 610 648
e 610 651
e 610 663
e 610 678
e 610 697
e 610 716
e 610 730
e 610 731
e 610 739
e 610 766
e 610 772
e 611 648
e 611 657
e 611 662
e 611 684
e 611 703
e 611 716
e 611 718
e 611 719
e 611 727
e 611 728
e 611 729
e 611 737
e 611 738
e 611 767
e 611 768
e 611 775
e 612 620
e 612 639
e 612 641
e 612 642
e 612 644
e 612 647
e 612 654
e 612 658
e 612 670
e 612 671
e 612 682
e 612 684
e 612 686
e 612 691
e 612 696
e 612 707
e 612 731
e 612 741
e 612 745
e 612 752
e 612 754
e 612 777
e 613 615
e 613 622
e 613 623
e 613 637
e 613 646
e 613 648
e 613 658
e 613 666
e 613 669
e 613 683
e 613 684
e 613 685
e 613 689
e 613 694
e 613 698
e 613 714
e 613 726
e 613 761
e 613 767
e 613 771
e 614 623
e 614 633
e 614 659
e 614 661
e 614 668
e 614 681
e 614 682
e 614 696
e 614 713
e 614 731
e 614 734
e 614 749
e 615 616
e 615 617
e 615 621
e 615 622
e 615 626
e 615 632
e 615 633
e 615 639
e 615 642
e 615 644
e 615 646
e 615 648
e 615 649
e 615 651
e 615 652
e 615 658
e 615 662
e 615 663
e 615 669
e 615 681
e 615 682
e 615 683
e 615 684
e 615 685
e 615 690
e 615 694
e 615 696
e 615 704
e 615 705
e 615 707
e 615 714
e 615 715
e 615 731
e 615 740
e 615 742
e 615 748
e 615 751
e 615 753
e 615 755
e 615 756
e 615 761
e 615 773
e 615 776
e 616 624
e 616 626
e 616 632
e 616 633
e 616 636
e 616 640
e 616 647
e 616 651
e 616 670
e 616 672
e 616 682
e 616 687
e 616 690
e 616 691
e 616 696
e 616 704
e 616 705
e 616 714
e 616 715
e 616 716
e 616 731
e 616 734
e 616 736
e 616 738
e 616 740
e 616 745
e 616 748
e 616 751
e 616 753
e 616 755
e 616 756
e 616 757
e 616 760
e 616 761
e 616 763
e 616 764
e 617 621
e 617 623
e 617 651
e 617 662
e 617 663
e 617 696
e 617 707
e 617 731
e 617 732
e 617 741
e 617 773
e 618 619
e 618 620
e 618 621
e 618 623
e 618 638
e 618 640
e 618 645
e 618 646
e 618 648
e 618 660
e 618 662
e 618 669
e 618 678
e 618 682
e 618 684
e 618 688
e 618 690
e 618 696
e 618 697
e 618 700
e 618 707
e 618 710
e 618 716
e 618 720
e 618 724
e 618 725
e 618 730
e 618 732
e 618 739
e 618 747
e 618 753
e 618 761
e 618 766
e 618 771
e 618 772
e 618 776
e 618 778
e 619 621
e 619 648
e 619 662
e 619 678
e 619 682
e 619 688
e 619 690
e 619 696
e 619 707
e 619 710
e 619 720
e 619 732
e 619 761
e 619 772
e 619 776
e 620 623
e 620 629
e 620 634
e 620 638
e 620 639
e 620 641
e 620 642
e 620 644
e 620 646
e 620 647
e 620 648
e 620 654
e 620 662
e 620 670
e 620 678
e 620 682
e 620 684
e 620 686
e 620 691
e 620 696
e 620 697
e 620 707
e 620 708
e 620 716
e 620 724
e 620 730
e 620 731
e 620 734
e 620 739
e 620 745
e 620 747
e 620 753
e 620 766
e 620 778
e 621 623
e 621 625
e 621 626
e 621 645
e 621 646
e 621 648
e 621 651
e 621 662
e 621 663
e 621 681
e 621 684
e 621 688
e 621 691
e 621 696
e 621 707
e 621 710
e 621 731
e 621 732
e 621 741
e 621 746
e 621 761
e 621 765
e 621 769
e 621 773
e 621 777
e 622 623
e 622 626
e 622 633
e 622 637
e 622 640
e 622 646
e 622 648
e 622 649
e 622 652
e 622 657
e 622 658
e 622 659
e 622 660
e 622 662
e 622 666
e 622 671
e 622 675
e 622 678
e 622 679
e 622 681
e 622 682
e 622 684
e 622 694
e 622 698
e 622 703
e 622 709
e 622 713
e 622 714
e 622 715
e 622 717
e 622 718
e 622 721
e 622 722
e 622 725
e 622 726
e 622 727
e 622 728
e 622 729
e 622 731
e 622 733
e 622 734
e 622 738
e 622 741
e 622 745
e 622 752
e 622 754
e 622 756
e 622 760
e 622 761
e 622 763
e 622 764
e 622 767
e 622 768
e 622 770
e 622 771
e 622 772
e 622 773
e 622 775
e 622 776
e 622 778
e 623 626
e 623 629
e 623 636
e 623 637
e 623 638
e 623 640
e 623 646
e 623 648
e 623 649
e 623 651
e 623 652
e 623 653
e 623 657
e 623 658
e 623 660
e 623 662
e 623 663
e 623 666
e 623 667
e 623 669
e 623 672
e 623 675
e 623 678
e 623 679
e 623 681
e 623 682
e 623 683
e 623 684
e 623 685
e 623 687
e 623 688
e 623 689
e 623 690
e 623 694
e 623 696
e 623 698
e 623 700
e 623 703
e 623 704
e 623 707
e 623 708
e 623 709
e 623 710
e 623 711
e 623 713
e 623 714
e 623 715
e 623 716
e 623 718
e 623 720
e 623 721
e 623 722
e 623 724
e 623 725
e 623 726
e 623 727
e 623 728
e 623 729
e 623 731
e 623 732
e 623 734
e 623 738
e 623 739
e 623 741
e 623 742
e 623 744
e 623 746
e 623 747
e 623 748
e 623 749
e 623 752
e 623 753
e 623 754
e 623 756
e 623 759
e 623 761
e 623 762
e 623 763
e 623 765
e 623 766
e 623 767
e 623 768
e 623 769
e 623 770
e 623 771
e 623 772
e 623 775
e 623 776
e 623 778
e 624 626
e 624 627
e 624 633
e 624 647
e 624 648
e 624 651
e 624 664
e 624 670
e 624 672
e 624 680
e 624 681
e 624 682
e 624 684
e 624 687
e 624 692
e 624 696
e 624 702
e 624 712
e 624 713
e 624 715
e 624 733
e 624 736
e 624 738
e 624 740
e 624 745
e 624 756
e 624 763
e 625 626
e 625 646
e 625 651
e 625 663
e 625 678
e 625 681
e 625 684
e 625 691
e 625 696
e 625 707
e 625 734
e 625 747
e 625 750
e 625 761
e 625 765
e 625 769
e 625 777
e 626 627
e 626 632
e 626 633
e 626 636
e 626 640
e 626 642
e 626 644
e 626 646
e 626 648
e 626 649
e 626 651
e 626 652
e 626 655
e 626 656
e 626 657
e 626 658
e 626 659
e 626 660
e 626 661
e 626 662
e 626 663
e 626 664
e 626 665
e 626 666
e 626 668
e 626 669
e 626 675
e 626 677
e 626 678
e 626 679
e 626 680
e 626 681
e 626 682
e 626 683
e 626 684
e 626 685
e 626 687
e 626 688
e 626 689
e 626 690
e 626 691
e 626 693
e 626 694
e 626 695
e 626 696
e 626 698
e 626 700
e 626 701
e 626 702
e 626 703
e 626 704
e 626 705
e 626 707
e 626 709
e 626 710
e 626 713
e 626 714
e 626 715
e 626 716
e 626 717
e 626 718
e 626 719
e 626 720
e 626 722
e 626 723
e 626 725
e 626 726
e 626 727
e 626 728
e 626 729
e 626 731
e 626 733
e 626 734
e 626 735
e 626 737
e 626 738
e 626 740
e 626 741
e 626 743
e 626 745
e 626 746
e 626 747
e 626 749
e 626 750
e 626 751
e 626 753
e 626 754
e 626 755
e 626 756
e 626 757
e 626 760
e 626 761
e 626 763
e 626 764
e 626 765
e 626 767
e 626 768
e 626 769
e 626 770
e 626 771
e 626 772
e 626 775
e 626 776
e 626 777
e 627 646
e 627 648
e 627 656
e 627 658
e 627 664
e 627 665
e 627 680
e 627 681
e 627 682
e 627 684
e 627 696
e 627 702
e 627 713
e 627 715
e 627 733
e 627 740
e 628 629
e 628 630
e 628 631
e 628 634
e 628 647
e 628 648
e 628 651
e 628 673
e 628 681
e 628 686
e 628 691
e 628 731
e 628 734
e 628 745
e 628 750
e 628 769
e 629 630
e 629 631
e 629 647
e 629 648
e 629 651
e 629 662
e 629 673
e 629 681
e 629 682
e 629 684
e 629 686
e 629 691
e 629 708
e 629 724
e 629 731
e 629 734
e 629 745
e 629 747
e 629 750
e 629 753
e 629 766
e 629 769
e 629 778
e 630 631
e 630 634
e 630 647
e 630 648
e 630 651
e 630 673
e 630 681
e 630 686
e 630 691
e 630 731
e 630 734
e 630 745
e 630 750
e 630 769
e 631 634
e 631 647
e 631 648
e 631 651
e 631 673
e 631 681
e 631 686
e 631 691
e 631 731
e 631 734
e 631 745
e 631 750
e 631 769
e 632 651
e 632 655
e 632 665
e 632 680
e 632 684
e 632 690
e 632 693
e 632 694
e 632 696
e 632 701
e 632 704
e 632 705
e 632 714
e 632 726
e 632 734
e 632 741
e 632 743
e 632 749
e 632 751
e 632 753
e 632 755
e 632 756
e 632 768
e 633 639
e 633 640
e 633 642
e 633 644
e 633 647
e 633 651
e 633 659
e 633 661
e 633 668
e 633 670
e 633 671
e 633 672
e 633 679
e 633 681
e 633 682
e 633 684
e 633 687
e 633 695
e 633 696
e 633 700
e 633 713
e 633 717
e 633 718
e 633 720
e 633 731
e 633 734
e 633 736
e 633 738
e 633 741
e 633 742
e 633 743
e 633 745
e 633 749
e 633 756
e 633 760
e 633 773
e 634 638
e 634 647
e 634 651
e 634 673
e 634 681
e 634 686
e 634 691
e 634 731
e 634 745
e 634 750
e 634 769
e 635 644
e 635 648
e 635 662
e 635 674
e 635 681
e 635 696
e 635 707
e 635 708
e 635 724
e 635 734
e 635 736
e 635 738
e 635 742
e 635 744
e 635 750
e 635 754
e 635 762
e 636 651
e 636 663
e 636 670
e 636 672
e 636 680
e 636 681
e 636 682
e 636 687
e 636 692
e 636 696
e 636 731
e 636 734
e 636 738
e 636 739
e 636 745
e 636 749
e 636 756
e 636 757
e 636 760
e 636 772
e 637 646
e 637 648
e 637 651
e 637 658
e 637 666
e 637 676
e 637 684
e 637 689
e 637 694
e 637 698
e 637 701
e 637 714
e 637 726
e 637 741
e 637 743
e 637 749
e 637 767
e 637 771
e 638 648
e 638 662
e 638 682
e 638 684
e 638 691
e 638 724
e 638 747
e 638 753
e 638 766
e 638 778
e 639 641
e 639 642
e 639 644
e 639 647
e 639 654
e 639 670
e 639 681
e 639 682
e 639 684
e 639 686
e 639 691
e 639 696
e 639 707
e 639 731
e 639 742
e 639 745
e 639 773
e 640 641
e 640 643
e 640 646
e 640 648
e 640 651
e 640 653
e 640 658
e 640 659
e 640 660
e 640 666
e 640 669
e 640 671
e 640 672
e 640 675
e 640 678
e 640 679
e 640 681
e 640 682
e 640 684
e 640 685
e 640 687
e 640 688
e 640 690
e 640 691
e 640 700
e 640 704
e 640 705
e 640 707
e 640 709
e 640 710
e 640 713
e 640 714
e 640 715
e 640 716
e 640 717
e 640 718
e 640 720
e 640 722
e 640 725
e 640 731
e 640 733
e 640 734
e 640 735
e 640 736
e 640 738
e 640 741
e 640 742
e 640 744
e 640 745
e 640 746
e 640 747
e 640 748
e 640 752
e 640 753
e 640 754
e 640 755
e 640 756
e 640 757
e 640 759
e 640 760
e 640 761
e 640 762
e 640 763
e 640 764
e 640 769
e 640 770
e 640 771
e 640 772
e 640 773
e 640 776
e 640 778
e 641 642
e 641 644
e 641 647
e 641 654
e 641 670
e 641 684
e 641 686
e 641 691
e 641 696
e 641 707
e 641 731
e 641 745
e 642 644
e 642 646
e 642 647
e 642 652
e 642 654
e 642 656
e 642 657
e 642 664
e 642 665
e 642 670
e 642 677
e 642 680
e 642 681
e 642 682
e 642 684
e 642 686
e 642 690
e 642 691
e 642 696
e 642 706
e 642 707
e 642 711
e 642 714
e 642 715
e 642 717
e 642 718
e 642 731
e 642 740
e 642 742
e 642 745
e 642 746
e 642 755
e 642 756
e 642 758
e 642 761
e 642 773
e 643 651
e 643 658
e 643 671
e 643 681
e 643 684
e 643 690
e 643 705
e 643 733
e 643 736
e 643 741
e 643 744
e 643 747
e 643 748
e 643 751
e 643 753
e 643 754
e 643 765
e 643 770
e 643 777
e 644 647
e 644 648
e 644 654
e 644 655
e 644 662
e 644 670
e 644 674
e 644 681
e 644 682
e 644 684
e 644 686
e 644 690
e 644 691
e 644 693
e 644 696
e 644 707
e 644 708
e 644 714
e 644 718
e 644 719
e 644 724
e 644 731
e 644 734
e 644 736
e 644 737
e 644 738
e 644 742
e 644 744
e 644 745
e 644 750
e 644 751
e 644 754
e 644 755
e 644 756
e 644 762
e 644 765
e 644 768
e 644 773
e 644 775
e 645 648
e 645 688
e 645 695
e 645 696
e 645 700
e 645 707
e 645 710
e 645 720
e 645 725
e 645 732
e 645 743
e 646 648
e 646 649
e 646 651
e 646 652
e 646 656
e 646 657
e 646 658
e 646 660
e 646 662
e 646 663
e 646 664
e 646 665
e 646 666
e 646 669
e 646 675
e 646 678
e 646 680
e 646 681
e 646 682
e 646 684
e 646 685
e 646 688
e 646 690
e 646 691
e 646 694
e 646 696
e 646 698
e 646 702
e 646 709
e 646 710
e 646 713
e 646 714
e 646 715
e 646 722
e 646 725
e 646 726
e 646 730
e 646 731
e 646 734
e 646 739
e 646 740
e 646 746
e 646 747
e 646 750
e 646 759
e 646 761
e 646 766
e 646 767
e 646 769
e 646 771
e 646 772
e 646 776
e 646 777
e 647 648
e 647 651
e 647 654
e 647 658
e 647 668
e 647 670
e 647 672
e 647 673
e 647 677
e 647 680
e 647 681
e 647 684
e 647 686
e 647 687
e 647 691
e 647 696
e 647 699
e 647 706
e 647 707
e 647 731
e 647 734
e 647 736
e 647 738
e 647 745
e 647 750
e 647 757
e 647 769
e 648 649
e 648 651
e 648 652
e 648 656
e 648 657
e 648 658
e 648 660
e 648 662
e 648 664
e 648 665
e 648 669
e 648 673
e 648 674
e 648 675
e 648 678
e 648 680
e 648 681
e 648 682
e 648 684
e 648 686
e 648 689
e 648 690
e 648 691
e 648 693
e 648 694
e 648 695
e 648 696
e 648 697
e 648 700
e 648 702
e 648 703
e 648 707
e 648 708
e 648 709
e 648 710
e 648 713
e 648 714
e 648 715
e 648 716
e 648 717
e 648 718
e 648 719
e 648 720
e 648 724
e 648 725
e 648 727
e 648 728
e 648 729
e 648 730
e 648 731
e 648 732
e 648 733
e 648 734
e 648 736
e 648 737
e 648 738
e 648 739
e 648 740
e 648 742
e 648 743
e 648 744
e 648 745
e 648 747
e 648 750
e 648 753
e 648 754
e 648 755
e 648 756
e 648 759
e 648 761
e 648 762
e 648 766
e 648 767
e 648 768
e 648 769
e 648 771
e 648 772
e 648 775
e 648 776
e 648 778
e 649 652
e 649 658
e 649 660
e 649 666
e 649 678
e 649 684
e 649 689
e 649 694
e 649 709
e 649 714
e 649 715
e 649 722
e 649 725
e 649 726
e 649 731
e 649 761
e 649 767
e 649 771
e 649 772
e 649 776
e 650 659
e 650 662
e 650 675
e 650 676
e 650 682
e 650 684
e 650 698
e 650 712
e 650 714
e 650 723
e 650 734
e 650 735
e 650 752
e 650 754
e 650 757
e 650 758
e 650 760
e 650 763
e 650 764
e 650 773
e 650 777
e 651 656
e 651 657
e 651 658
e 651 659
e 651 661
e 651 662
e 651 663
e 651 665
e 651 668
e 651 670
e 651 671
e 651 672
e 651 673
e 651 676
e 651 678
e 651 679
e 651 680
e 651 681
e 651 682
e 651 684
e 651 686
e 651 687
e 651 690
e 651 691
e 651 692
e 651 695
e 651 696
e 651 699
e 651 700
e 651 701
e 651 702
e 651 705
e 651 706
e 651 707
e 651 712
e 651 713
e 651 714
e 651 715
e 651 716
e 651 720
e 651 723
e 651 731
e 651 733
e 651 734
e 651 736
e 651 738
e 651 739
e 651 741
e 651 743
e 651 744
e 651 745
e 651 747
e 651 748
e 651 749
e 651 750
e 651 751
e 651 753
e 651 754
e 651 756
e 651 757
e 651 760
e 651 761
e 651 763
e 651 764
e 651 765
e 651 767
e 651 769
e 651 770
e 651 772
e 651 773
e 651 777
e 652 656
e 652 657
e 652 658
e 652 660
e 652 664
e 652 665
e 652 666
e 652 678
e 652 680
e 652 684
e 652 690
e 652 694
e 652 709
e 652 714
e 652 715
e 652 722
e 652 725
e 652 726
e 652 731
e 652 761
e 652 771
e 652 772
e 652 776
e 653 667
e 653 672
e 653 681
e 653 682
e 653 687
e 653 690
e 653 704
e 653 716
e 653 738
e 653 742
e 653 744
e 653 747
e 653 762
e 653 765
e 653 769
e 653 778
e 654 658
e 654 670
e 654 671
e 654 673
e 654 682
e 654 684
e 654 686
e 654 691
e 654 696
e 654 707
e 654 731
e 654 741
e 654 745
e 654 752
e 654 754
e 654 777
e 655 690
e 655 693
e 655 714
e 655 737
e 655 751
e 655 765
e 655 768
e 656 657
e 656 658
e 656 664
e 656 665
e 656 668
e 656 679
e 656 680
e 656 684
e 656 690
e 656 695
e 656 696
e 656 701
e 656 731
e 656 734
e 656 741
e 656 743
e 656 749
e 657 662
e 657 664
e 657 665
e 657 668
e 657 675
e 657 679
e 657 680
e 657 682
e 657 684
e 657 690
e 657 695
e 657 696
e 657 701
e 657 703
e 657 714
e 657 715
e 657 716
e 657 718
e 657 719
e 657 727
e 657 728
e 657 729
e 657 731
e 657 734
e 657 737
e 657 738
e 657 741
e 657 743
e 657 749
e 657 754
e 657 759
e 657 761
e 657 762
e 657 767
e 657 768
e 657 775
e 658 665
e 658 666
e 658 668
e 658 671
e 658 677
e 658 680
e 658 681
e 658 682
e 658 684
e 658 689
e 658 694
e 658 696
e 658 698
e 658 705
e 658 714
e 658 715
e 658 726
e 658 731
e 658 736
e 658 741
e 658 747
e 658 748
e 658 752
e 658 753
e 658 754
e 658 761
e 658 767
e 658 771
e 658 776
e 658 777
e 659 661
e 659 668
e 659 671
e 659 677
e 659 679
e 659 681
e 659 682
e 659 684
e 659 695
e 659 696
e 659 698
e 659 700
e 659 712
e 659 713
e 659 717
e 659 718
e 659 720
e 659 723
e 659 731
e 659 734
e 659 735
e 659 741
e 659 743
e 659 745
e 659 749
e 659 754
e 659 756
e 659 757
e 659 758
e 659 760
e 659 761
e 659 763
e 659 764
e 659 773
e 659 777
e 660 666
e 660 669
e 660 675
e 660 678
e 660 682
e 660 683
e 660 684
e 660 685
e 660 688
e 660 689
e 660 690
e 660 694
e 660 700
e 660 707
e 660 709
e 660 710
e 660 714
e 660 715
e 660 720
e 660 722
e 660 725
e 660 726
e 660 746
e 660 761
e 660 771
e 660 772
e 660 776
e 661 668
e 661 679
e 661 682
e 661 684
e 661 695
e 661 696
e 661 700
e 661 720
e 661 731
e 661 734
e 661 741
e 661 743
e 661 749
e 662 663
e 662 674
e 662 675
e 662 676
e 662 678
e 662 679
e 662 681
e 662 682
e 662 684
e 662 688
e 662 690
e 662 693
e 662 696
e 662 697
e 662 703
e 662 707
e 662 708
e 662 710
e 662 714
e 662 716
e 662 718
e 662 719
e 662 720
e 662 724
e 662 727
e 662 728
e 662 729
e 662 730
e 662 731
e 662 732
e 662 734
e 662 736
e 662 737
e 662 738
e 662 739
e 662 742
e 662 744
e 662 747
e 662 750
e 662 752
e 662 753
e 662 754
e 662 755
e 662 757
e 662 758
e 662 761
e 662 762
e 662 763
e 662 764
e 662 766
e 662 767
e 662 768
e 662 772
e 662 773
e 662 775
e 662 776
e 662 778
e 663 681
e 663 684
e 663 691
e 663 696
e 663 707
e 663 731
e 663 739
e 663 761
e 663 765
e 663 769
e 663 772
e 663 773
e 663 777
e 664 665
e 664 680
e 664 681
e 664 682
e 664 684
e 664 690
e 664 696
e 664 702
e 664 713
e 664 714
e 664 715
e 664 731
e 664 733
e 664 740
e 664 761
e 665 666
e 665 675
e 665 680
e 665 682
e 665 684
e 665 690
e 665 701
e 665 702
e 665 713
e 665 734
e 665 740
e 665 741
e 665 743
e 665 746
e 665 749
e 666 669
e 666 675
e 666 678
e 666 682
e 666 683
e 666 684
e 666 685
e 666 689
e 666 690
e 666 694
e 666 698
e 666 709
e 666 710
e 666 714
e 666 715
e 666 722
e 666 725
e 666 726
e 666 746
e 666 759
e 666 761
e 666 767
e 666 771
e 666 772
e 666 776
e 667 690
e 667 711
e 667 715
e 667 716
e 667 747
e 667 759
e 667 765
e 667 769
e 667 778
e 668 677
e 668 679
e 668 680
e 668 682
e 668 695
e 668 696
e 668 701
e 668 731
e 668 734
e 668 736
e 668 741
e 668 743
e 668 749
e 669 675
e 669 678
e 669 682
e 669 683
e 669 684
e 669 685
e 669 688
e 669 689
e 669 690
e 669 700
e 669 707
e 669 709
e 669 710
e 669 720
e 669 722
e 669 725
e 669 726
e 669 746
e 669 761
e 669 771
e 669 772
e 669 776
e 670 672
e 670 680
e 670 682
e 670 684
e 670 686
e 670 687
e 670 691
e 670 692
e 670 696
e 670 707
e 670 731
e 670 736
e 670 738
e 670 745
e 671 681
e 671 682
e 671 684
e 671 696
e 671 705
e 671 713
e 671 717
e 671 718
e 671 736
e 671 741
e 671 745
e 671 747
e 671 748
e 671 752
e 671 753
e 671 754
e 671 756
e 671 760
e 671 777
e 672 680
e 672 681
e 672 682
e 672 687
e 672 692
e 672 704
e 672 736
e 672 738
e 672 742
e 672 744
e 672 745
e 672 762
e 672 769
e 672 778
e 673 681
e 673 686
e 673 691
e 673 731
e 673 734
e 673 745
e 673 750
e 673 769
e 674 681
e 674 693
e 674 696
e 674 707
e 674 708
e 674 718
e 674 724
e 674 734
e 674 736
e 674 738
e 674 742
e 674 744
e 674 750
e 674 754
e 674 755
e 674 762
e 674 775
e 675 676
e 675 678
e 675 679
e 675 682
e 675 683
e 675 684
e 675 685
e 675 689
e 675 690
e 675 703
e 675 709
e 675 710
e 675 714
e 675 718
e 675 719
e 675 722
e 675 725
e 675 726
e 675 727
e 675 728
e 675 729
e 675 734
e 675 737
e 675 738
e 675 746
e 675 752
e 675 754
e 675 757
e 675 758
e 675 759
e 675 761
e 675 763
e 675 764
e 675 767
e 675 768
e 675 771
e 675 772
e 675 773
e 675 775
e 675 776
e 676 682
e 676 684
e 676 701
e 676 714
e 676 734
e 676 741
e 676 743
e 676 749
e 676 752
e 676 757
e 676 758
e 676 763
e 676 764
e 676 767
e 676 773
e 677 682
e 677 684
e 677 696
e 677 714
e 677 717
e 677 718
e 677 734
e 677 735
e 677 736
e 677 740
e 677 746
e 677 754
e 677 755
e 677 756
e 677 757
e 677 761
e 677 777
e 678 681
e 678 682
e 678 683
e 678 684
e 678 685
e 678 688
e 678 689
e 678 690
e 678 691
e 678 694
e 678 697
e 678 700
e 678 707
e 678 709
e 678 710
e 678 714
e 678 715
e 678 716
e 678 720
e 678 722
e 678 725
e 678 726
e 678 730
e 678 734
e 678 739
e 678 746
e 678 747
e 678 750
e 678 761
e 678 766
e 678 769
e 678 771
e 678 772
e 678 776
e 679 680
e 679 682
e 679 684
e 679 695
e 679 696
e 679 700
e 679 701
e 679 703
e 679 714
e 679 718
e 679 720
e 679 721
e 679 727
e 679 728
e 679 729
e 679 731
e 679 734
e 679 738
e 679 741
e 679 743
e 679 748
e 679 749
e 679 752
e 679 754
e 679 755
e 679 759
e 679 761
e 679 763
e 679 767
e 679 768
e 679 770
e 679 775
e 679 778
e 680 681
e 680 682
e 680 684
e 680 687
e 680 690
e 680 692
e 680 694
e 680 695
e 680 696
e 680 699
e 680 701
e 680 702
e 680 706
e 680 712
e 680 713
e 680 723
e 680 726
e 680 731
e 680 734
e 680 738
e 680 740
e 680 741
e 680 743
e 680 746
e 680 749
e 680 756
e 680 757
e 680 763
e 681 682
e 681 684
e 681 686
e 681 687
e 681 690
e 681 691
e 681 692
e 681 693
e 681 696
e 681 699
e 681 702
e 681 704
e 681 705
e 681 706
e 681 707
e 681 708
e 681 709
e 681 710
e 681 712
e 681 713
e 681 715
e 681 716
e 681 717
e 681 718
e 681 724
e 681 731
e 681 733
e 681 734
e 681 735
e 681 736
e 681 738
e 681 740
e 681 741
e 681 742
e 681 744
e 681 745
e 681 747
e 681 748
e 681 749
e 681 750
e 681 752
e 681 753
e 681 754
e 681 755
e 681 756
e 681 758
e 681 759
e 681 760
e 681 761
e 681 762
e 681 763
e 681 764
e 681 765
e 681 769
e 681 770
e 681 773
e 681 775
e 681 777
e 681 778
e 682 684
e 682 687
e 682 688
e 682 690
e 682 691
e 682 692
e 682 695
e 682 696
e 682 697
e 682 700
e 682 702
e 682 704
e 682 707
e 682 708
e 682 710
e 682 712
e 682 713
e 682 714
e 682 715
e 682 716
e 682 720
e 682 721
e 682 722
e 682 724
e 682 725
e 682 730
e 682 731
e 682 732
e 682 733
e 682 734
e 682 735
e 682 738
e 682 739
e 682 740
e 682 741
e 682 742
e 682 743
e 682 744
e 682 745
e 682 746
e 682 747
e 682 748
e 682 749
e 682 752
e 682 753
e 682 754
e 682 755
e 682 756
e 682 757
e 682 758
e 682 759
e 682 760
e 682 761
e 682 762
e 682 763
e 682 764
e 682 766
e 682 769
e 682 770
e 682 771
e 682 772
e 682 773
e 682 776
e 682 777
e 682 778
e 683 684
e 683 685
e 683 689
e 683 709
e 683 722
e 683 725
e 683 726
e 683 761
e 683 771
e 683 772
e 683 776
e 684 685
e 684 686
e 684 689
e 684 690
e 684 691
e 684 692
e 684 694
e 684 695
e 684 696
e 684 698
e 684 699
e 684 700
e 684 702
e 684 703
e 684 705
e 684 707
e 684 708
e 684 709
e 684 710
e 684 712
e 684 713
e 684 714
e 684 715
e 684 716
e 684 717
e 684 718
e 684 719
e 684 720
e 684 722
e 684 724
e 684 725
e 684 726
e 684 727
e 684 728
e 684 729
e 684 731
e 684 733
e 684 734
e 684 735
e 684 736
e 684 737
e 684 738
e 684 740
e 684 741
e 684 742
e 684 743
e 684 745
e 684 746
e 684 747
e 684 748
e 684 752
e 684 753
e 684 754
e 684 755
e 684 756
e 684 757
e 684 758
e 684 759
e 684 761
e 684 762
e 684 763
e 684 764
e 684 765
e 684 766
e 684 767
e 684 768
e 684 771
e 684 772
e 684 773
e 684 775
e 684 776
e 684 777
e 684 778
e 685 689
e 685 690
e 685 709
e 685 710
e 685 722
e 685 725
e 685 726
e 685 746
e 685 759
e 685 761
e 685 771
e 685 772
e 685 776
e 686 691
e 686 696
e 686 707
e 686 731
e 686 734
e 686 745
e 686 750
e 686 769
e 687 692
e 687 696
e 687 704
e 687 731
e 687 734
e 687 736
e 687 738
e 687 742
e 687 744
e 687 745
e 687 756
e 687 757
e 687 760
e 687 762
e 687 769
e 687 778
e 688 690
e 688 696
e 688 710
e 688 722
e 688 725
e 688 732
e 688 746
e 688 761
e 688 771
e 688 772
e 688 776
e 689 709
e 689 714
e 689 722
e 689 725
e 689 726
e 689 761
e 689 767
e 689 771
e 689 772
e 689 776
e 690 693
e 690 696
e 690 700
e 690 704
e 690 705
e 690 707
e 690 709
e 690 710
e 690 714
e 690 715
e 690 716
e 690 717
e 690 718
e 690 720
e 690 722
e 690 725
e 690 731
e 690 732
e 690 733
e 690 737
e 690 741
e 690 744
e 690 746
e 690 747
e 690 751
e 690 753
e 690 754
e 690 755
e 690 756
e 690 759
e 690 761
e 690 765
e 690 768
e 690 769
e 690 770
e 690 771
e 690 772
e 690 776
e 690 777
e 690 778
e 691 696
e 691 707
e 691 715
e 691 716
e 691 731
e 691 733
e 691 734
e 691 735
e 691 745
e 691 747
e 691 750
e 691 757
e 691 761
e 691 763
e 691 764
e 691 765
e 691 769
e 691 770
e 691 773
e 691 777
e 692 702
e 692 706
e 692 712
e 692 713
e 692 723
e 692 738
e 692 756
e 692 757
e 692 763
e 693 707
e 693 708
e 693 714
e 693 718
e 693 734
e 693 737
e 693 742
e 693 750
e 693 751
e 693 754
e 693 755
e 693 762
e 693 765
e 693 768
e 693 775
e 694 698
e 694 709
e 694 714
e 694 715
e 694 722
e 694 725
e 694 726
e 694 734
e 694 761
e 694 767
e 694 771
e 694 772
e 694 776
e 695 696
e 695 700
e 695 701
e 695 720
e 695 731
e 695 734
e 695 741
e 695 743
e 695 749
e 696 699
e 696 701
e 696 702
e 696 704
e 696 705
e 696 706
e 696 707
e 696 708
e 696 709
e 696 710
e 696 713
e 696 714
e 696 715
e 696 717
e 696 718
e 696 724
e 696 731
e 696 732
e 696 733
e 696 734
e 696 735
e 696 736
e 696 738
e 696 740
e 696 741
e 696 742
e 696 743
e 696 744
e 696 745
e 696 746
e 696 749
e 696 750
e 696 751
e 696 752
e 696 753
e 696 754
e 696 755
e 696 756
e 696 757
e 696 758
e 696 759
e 696 760
e 696 761
e 696 762
e 696 763
e 696 764
e 696 765
e 696 769
e 696 773
e 696 777
e 697 716
e 697 730
e 697 739
e 697 766
e 698 703
e 698 712
e 698 714
e 698 718
e 698 723
e 698 726
e 698 734
e 698 735
e 698 738
e 698 754
e 698 758
e 698 760
e 698 764
e 698 767
e 698 770
e 698 771
e 698 773
e 698 777
e 699 706
e 699 757
e 700 707
e 700 720
e 700 725
e 700 732
e 700 741
e 700 743
e 700 761
e 700 771
e 700 772
e 700 776
e 701 714
e 701 731
e 701 734
e 701 741
e 701 743
e 701 749
e 701 767
e 702 706
e 702 709
e 702 712
e 702 713
e 702 715
e 702 717
e 702 718
e 702 723
e 702 733
e 702 740
e 702 746
e 702 757
e 703 716
e 703 718
e 703 719
e 703 723
e 703 727
e 703 728
e 703 729
e 703 734
e 703 737
e 703 738
e 703 754
e 703 760
e 703 767
e 703 768
e 703 770
e 703 771
e 703 775
e 703 777
e 704 705
e 704 714
e 704 715
e 704 738
e 704 740
e 704 742
e 704 744
e 704 748
e 704 751
e 704 753
e 704 755
e 704 756
e 704 762
e 704 769
e 704 778
e 705 714
e 705 715
e 705 736
e 705 740
e 705 747
e 705 748
e 705 751
e 705 753
e 705 754
e 705 755
e 705 756
e 706 711
e 706 712
e 706 717
e 706 718
e 706 723
e 706 731
e 706 746
e 706 757
e 706 758
e 707 708
e 707 718
e 707 720
e 707 724
e 707 725
e 707 731
e 707 732
e 707 734
e 707 736
e 707 738
e 707 742
e 707 744
e 707 745
e 707 750
e 707 754
e 707 755
e 707 761
e 707 762
e 707 765
e 707 771
e 707 772
e 707 773
e 707 775
e 707 776
e 707 777
e 708 718
e 708 724
e 708 734
e 708 736
e 708 738
e 708 742
e 708 744
e 708 747
e 708 750
e 708 753
e 708 754
e 708 755
e 708 762
e 708 766
e 708 775
e 708 778
e 709 710
e 709 714
e 709 715
e 709 717
e 709 718
e 709 722
e 709 725
e 709 726
e 709 740
e 709 746
e 709 759
e 709 761
e 709 767
e 709 771
e 709 772
e 709 776
e 710 717
e 710 718
e 710 722
e 710 725
e 710 732
e 710 746
e 710 755
e 710 759
e 710 761
e 710 771
e 710 772
e 710 776
e 711 715
e 711 716
e 711 717
e 711 718
e 711 721
e 711 731
e 711 746
e 711 748
e 711 758
e 711 759
e 711 765
e 711 769
e 711 778
e 712 713
e 712 723
e 712 735
e 712 754
e 712 756
e 712 757
e 712 758
e 712 760
e 712 763
e 712 764
e 712 773
e 712 777
e 713 715
e 713 717
e 713 718
e 713 733
e 713 734
e 713 740
e 713 741
e 713 745
e 713 746
e 713 749
e 713 756
e 713 760
e 713 763
e 714 715
e 714 722
e 714 725
e 714 726
e 714 731
e 714 734
e 714 737
e 714 740
e 714 741
e 714 743
e 714 746
e 714 748
e 714 749
e 714 751
e 714 752
e 714 753
e 714 755
e 714 756
e 714 757
e 714 758
e 714 759
e 714 761
e 714 763
e 714 764
e 714 765
e 714 767
e 714 768
e 714 771
e 714 772
e 714 773
e 714 776
e 715 716
e 715 718
e 715 719
e 715 722
e 715 725
e 715 726
e 715 731
e 715 733
e 715 734
e 715 735
e 715 740
e 715 748
e 715 751
e 715 753
e 715 757
e 715 759
e 715 761
e 715 762
e 715 763
e 715 764
e 715 765
e 715 769
e 715 770
e 715 771
e 715 772
e 715 773
e 715 775
e 715 776
e 716 718
e 716 719
e 716 727
e 716 728
e 716 729
e 716 730
e 716 731
e 716 732
e 716 733
e 716 734
e 716 735
e 716 737
e 716 738
e 716 739
e 716 741
e 716 744
e 716 747
e 716 754
e 716 757
e 716 759
e 716 761
e 716 762
e 716 763
e 716 764
e 716 765
e 716 766
e 716 767
e 716 768
e 716 769
e 716 770
e 716 773
e 716 775
e 716 776
e 716 778
e 717 718
e 717 731
e 717 734
e 717 735
e 717 740
e 717 741
e 717 745
e 717 746
e 717 754
e 717 755
e 717 756
e 717 757
e 717 758
e 717 759
e 717 760
e 717 761
e 717 777
e 718 719
e 718 723
e 718 727
e 718 728
e 718 729
e 718 731
e 718 734
e 718 735
e 718 737
e 718 738
e 718 740
e 718 741
e 718 742
e 718 745
e 718 746
e 718 750
e 718 754
e 718 755
e 718 756
e 718 757
e 718 758
e 718 759
e 718 760
e 718 761
e 718 762
e 718 767
e 718 768
e 718 770
e 718 771
e 718 775
e 718 777
e 719 727
e 719 728
e 719 729
e 719 734
e 719 737
e 719 738
e 719 755
e 719 756
e 719 759
e 719 762
e 719 767
e 719 768
e 719 775
e 720 725
e 720 732
e 720 741
e 720 743
e 720 761
e 720 771
e 720 772
e 720 776
e 721 734
e 721 748
e 721 752
e 721 759
e 721 763
e 721 770
e 721 778
e 722 725
e 722 726
e 722 746
e 722 761
e 722 767
e 722 771
e 722 772
e 722 776
e 723 734
e 723 735
e 723 738
e 723 754
e 723 757
e 723 758
e 723 760
e 723 764
e 723 770
e 723 771
e 723 773
e 723 777
e 724 734
e 724 736
e 724 738
e 724 742
e 724 744
e 724 747
e 724 750
e 724 753
e 724 754
e 724 762
e 724 766
e 724 778
e 725 726
e 725 732
e 725 746
e 725 761
e 725 771
e 725 772
e 725 776
e 726 734
e 726 761
e 726 767
e 726 771
e 726 772
e 726 776
e 727 728
e 727 729
e 727 737
e 727 738
e 727 754
e 727 767
e 727 768
e 727 775
e 728 729
e 728 737
e 728 738
e 728 754
e 728 767
e 728 768
e 728 775
e 729 737
e 729 738
e 729 754
e 729 767
e 729 768
e 729 775
e 730 739
e 730 766
e 731 733
e 731 734
e 731 735
e 731 739
e 731 741
e 731 743
e 731 745
e 731 746
e 731 749
e 731 750
e 731 752
e 731 756
e 731 757
e 731 758
e 731 760
e 731 761
e 731 764
e 731 769
e 731 770
e 731 772
e 731 773
e 732 741
e 732 744
e 732 754
e 732 761
e 732 776
e 733 735
e 733 740
e 733 741
e 733 744
e 733 751
e 733 752
e 733 754
e 733 760
e 733 764
e 733 765
e 733 770
e 733 773
e 733 777
e 734 735
e 734 736
e 734 738
e 734 741
e 734 742
e 734 743
e 734 744
e 734 745
e 734 747
e 734 749
e 734 750
e 734 752
e 734 753
e 734 754
e 734 755
e 734 756
e 734 757
e 734 758
e 734 759
e 734 760
e 734 761
e 734 762
e 734 763
e 734 764
e 734 766
e 734 769
e 734 770
e 734 771
e 734 773
e 734 775
e 734 777
e 734 778
e 735 754
e 735 757
e 735 758
e 735 760
e 735 761
e 735 763
e 735 764
e 735 770
e 735 773
e 735 777
e 736 738
e 736 742
e 736 744
e 736 745
e 736 747
e 736 748
e 736 750
e 736 753
e 736 754
e 736 762
e 737 738
e 737 751
e 737 765
e 737 767
e 737 768
e 737 775
e 738 742
e 738 744
e 738 745
e 738 750
e 738 754
e 738 760
e 738 762
e 738 767
e 738 768
e 738 769
e 738 770
e 738 771
e 738 775
e 738 777
e 738 778
e 739 766
e 739 772
e 740 746
e 740 748
e 740 751
e 740 753
e 740 755
e 740 756
e 741 743
e 741 744
e 741 745
e 741 749
e 741 751
e 741 752
e 741 754
e 741 756
e 741 760
e 741 761
e 741 765
e 741 767
e 741 770
e 741 776
e 741 777
e 742 744
e 742 750
e 742 754
e 742 755
e 742 762
e 742 769
e 742 773
e 742 775
e 742 778
e 743 749
e 743 767
e 744 750
e 744 751
e 744 754
e 744 761
e 744 762
e 744 765
e 744 769
e 744 770
e 744 776
e 744 777
e 744 778
e 745 750
e 745 756
e 745 757
e 745 760
e 745 769
e 746 755
e 746 756
e 746 758
e 746 759
e 746 761
e 746 771
e 746 772
e 746 776
e 747 748
e 747 750
e 747 753
e 747 754
e 747 761
e 747 765
e 747 766
e 747 769
e 747 778
e 748 751
e 748 753
e 748 754
e 748 755
e 748 759
e 748 761
e 748 778
e 749 756
e 749 767
e 750 754
e 750 755
e 750 761
e 750 762
e 750 769
e 750 775
e 751 753
e 751 754
e 751 755
e 751 756
e 751 765
e 751 768
e 751 770
e 751 777
e 752 754
e 752 757
e 752 758
e 752 760
e 752 763
e 752 764
e 752 770
e 752 773
e 752 777
e 752 778
e 753 754
e 753 755
e 753 756
e 753 766
e 753 778
e 754 755
e 754 757
e 754 758
e 754 760
e 754 761
e 754 762
e 754 763
e 754 764
e 754 765
e 754 767
e 754 768
e 754 770
e 754 773
e 754 775
e 754 776
e 754 777
e 755 756
e 755 759
e 755 761
e 755 762
e 755 775
e 756 757
e 756 760
e 756 762
e 756 763
e 756 775
e 757 758
e 757 760
e 757 761
e 757 763
e 757 764
e 757 773
e 757 777
e 758 760
e 758 763
e 758 764
e 758 773
e 758 777
e 759 761
e 759 762
e 759 765
e 759 769
e 759 775
e 759 778
e 760 763
e 760 764
e 760 770
e 760 771
e 760 773
e 760 777
e 761 763
e 761 764
e 761 765
e 761 767
e 761 769
e 761 771
e 761 772
e 761 776
e 761 777
e 762 769
e 762 775
e 762 778
e 763 764
e 763 770
e 763 773
e 763 777
e 763 778
e 764 770
e 764 773
e 764 777
e 765 768
e 765 769
e 765 770
e 765 777
e 765 778
e 766 778
e 767 768
e 767 771
e 767 775
e 768 775
e 769 777
e 769 778
e 770 771
e 770 773
e 770 777
e 770 778
e 771 772
e 771 776
e 771 777
e 772 776
e 773 777
